pair_coeff  2153  3002   gauss/wall   -5.0   16.84   1.20   25.00
pair_coeff  2153  3003   gauss/wall   -5.0    7.65   1.20   25.00
pair_coeff  2153  3004   gauss/wall   -5.0   12.06   1.20   25.00
pair_coeff  2153  3005   gauss/wall   -5.0   13.22   1.20   25.00
pair_coeff  2153  3006   gauss/wall   -5.0   11.07   1.20   25.00
pair_coeff  2153  3007   gauss/wall   -5.0   16.90   1.20   25.00
pair_coeff  2153  3014   gauss/wall   -5.0   11.27   1.20   25.00
pair_coeff  2153  3015   gauss/wall   -5.0    7.81   1.20   25.00
pair_coeff  2153  3016   gauss/wall   -5.0   13.77   1.20   25.00
pair_coeff  2153  3019   gauss/wall   -5.0   17.13   1.20   25.00
pair_coeff  2153  3020   gauss/wall   -5.0   12.84   1.20   25.00
pair_coeff  2153  3021   gauss/wall   -5.0   16.35   1.20   25.00
pair_coeff  2157  3002   gauss/wall   -5.0   16.84   1.20   25.00
pair_coeff  2157  3003   gauss/wall   -5.0    7.65   1.20   25.00
pair_coeff  2157  3004   gauss/wall   -5.0   12.06   1.20   25.00
pair_coeff  2157  3005   gauss/wall   -5.0   13.22   1.20   25.00
pair_coeff  2157  3006   gauss/wall   -5.0   11.07   1.20   25.00
pair_coeff  2157  3007   gauss/wall   -5.0   16.90   1.20   25.00
pair_coeff  2157  3014   gauss/wall   -5.0   11.27   1.20   25.00
pair_coeff  2157  3015   gauss/wall   -5.0    7.81   1.20   25.00
pair_coeff  2157  3016   gauss/wall   -5.0   13.77   1.20   25.00
pair_coeff  2157  3019   gauss/wall   -5.0   17.13   1.20   25.00
pair_coeff  2157  3020   gauss/wall   -5.0   12.84   1.20   25.00
pair_coeff  2157  3021   gauss/wall   -5.0   16.35   1.20   25.00
pair_coeff  2158  3002   gauss/wall   -5.0   16.84   1.20   25.00
pair_coeff  2158  3003   gauss/wall   -5.0    7.65   1.20   25.00
pair_coeff  2158  3004   gauss/wall   -5.0   12.06   1.20   25.00
pair_coeff  2158  3005   gauss/wall   -5.0   13.22   1.20   25.00
pair_coeff  2158  3006   gauss/wall   -5.0   11.07   1.20   25.00
pair_coeff  2158  3007   gauss/wall   -5.0   16.90   1.20   25.00
pair_coeff  2158  3014   gauss/wall   -5.0   11.27   1.20   25.00
pair_coeff  2158  3015   gauss/wall   -5.0    7.81   1.20   25.00
pair_coeff  2158  3016   gauss/wall   -5.0   13.77   1.20   25.00
pair_coeff  2158  3019   gauss/wall   -5.0   17.13   1.20   25.00
pair_coeff  2158  3020   gauss/wall   -5.0   12.84   1.20   25.00
pair_coeff  2158  3021   gauss/wall   -5.0   16.35   1.20   25.00
pair_coeff  2163  3002   gauss/wall   -5.0   16.84   1.20   25.00
pair_coeff  2163  3003   gauss/wall   -5.0    7.65   1.20   25.00
pair_coeff  2163  3004   gauss/wall   -5.0   12.06   1.20   25.00
pair_coeff  2163  3005   gauss/wall   -5.0   13.22   1.20   25.00
pair_coeff  2163  3006   gauss/wall   -5.0   11.07   1.20   25.00
pair_coeff  2163  3007   gauss/wall   -5.0   16.90   1.20   25.00
pair_coeff  2163  3014   gauss/wall   -5.0   11.27   1.20   25.00
pair_coeff  2163  3015   gauss/wall   -5.0    7.81   1.20   25.00
pair_coeff  2163  3016   gauss/wall   -5.0   13.77   1.20   25.00
pair_coeff  2163  3019   gauss/wall   -5.0   17.13   1.20   25.00
pair_coeff  2163  3020   gauss/wall   -5.0   12.84   1.20   25.00
pair_coeff  2163  3021   gauss/wall   -5.0   16.35   1.20   25.00
pair_coeff  2165  3002   gauss/wall   -5.0   16.84   1.20   25.00
pair_coeff  2165  3003   gauss/wall   -5.0    7.65   1.20   25.00
pair_coeff  2165  3004   gauss/wall   -5.0   12.06   1.20   25.00
pair_coeff  2165  3005   gauss/wall   -5.0   13.22   1.20   25.00
pair_coeff  2165  3006   gauss/wall   -5.0   11.07   1.20   25.00
pair_coeff  2165  3007   gauss/wall   -5.0   16.90   1.20   25.00
pair_coeff  2165  3014   gauss/wall   -5.0   11.27   1.20   25.00
pair_coeff  2165  3015   gauss/wall   -5.0    7.81   1.20   25.00
pair_coeff  2165  3016   gauss/wall   -5.0   13.77   1.20   25.00
pair_coeff  2165  3019   gauss/wall   -5.0   17.13   1.20   25.00
pair_coeff  2165  3020   gauss/wall   -5.0   12.84   1.20   25.00
pair_coeff  2165  3021   gauss/wall   -5.0   16.35   1.20   25.00
pair_coeff  2166  3002   gauss/wall   -5.0   16.84   1.20   25.00
pair_coeff  2166  3003   gauss/wall   -5.0    7.65   1.20   25.00
pair_coeff  2166  3004   gauss/wall   -5.0   12.06   1.20   25.00
pair_coeff  2166  3005   gauss/wall   -5.0   13.22   1.20   25.00
pair_coeff  2166  3006   gauss/wall   -5.0   11.07   1.20   25.00
pair_coeff  2166  3007   gauss/wall   -5.0   16.90   1.20   25.00
pair_coeff  2166  3014   gauss/wall   -5.0   11.27   1.20   25.00
pair_coeff  2166  3015   gauss/wall   -5.0    7.81   1.20   25.00
pair_coeff  2166  3016   gauss/wall   -5.0   13.77   1.20   25.00
pair_coeff  2166  3019   gauss/wall   -5.0   17.13   1.20   25.00
pair_coeff  2166  3020   gauss/wall   -5.0   12.84   1.20   25.00
pair_coeff  2166  3021   gauss/wall   -5.0   16.35   1.20   25.00
pair_coeff  2170  3002   gauss/wall   -5.0   16.84   1.20   25.00
pair_coeff  2170  3003   gauss/wall   -5.0    7.65   1.20   25.00
pair_coeff  2170  3004   gauss/wall   -5.0   12.06   1.20   25.00
pair_coeff  2170  3005   gauss/wall   -5.0   13.22   1.20   25.00
pair_coeff  2170  3006   gauss/wall   -5.0   11.07   1.20   25.00
pair_coeff  2170  3007   gauss/wall   -5.0   16.90   1.20   25.00
pair_coeff  2170  3014   gauss/wall   -5.0   11.27   1.20   25.00
pair_coeff  2170  3015   gauss/wall   -5.0    7.81   1.20   25.00
pair_coeff  2170  3016   gauss/wall   -5.0   13.77   1.20   25.00
pair_coeff  2170  3019   gauss/wall   -5.0   17.13   1.20   25.00
pair_coeff  2170  3020   gauss/wall   -5.0   12.84   1.20   25.00
pair_coeff  2170  3021   gauss/wall   -5.0   16.35   1.20   25.00
pair_coeff  2256  3002   gauss/wall   -5.0   16.84   1.20   25.00
pair_coeff  2256  3003   gauss/wall   -5.0    7.65   1.20   25.00
pair_coeff  2256  3004   gauss/wall   -5.0   12.06   1.20   25.00
pair_coeff  2256  3005   gauss/wall   -5.0   13.22   1.20   25.00
pair_coeff  2256  3006   gauss/wall   -5.0   11.07   1.20   25.00
pair_coeff  2256  3007   gauss/wall   -5.0   16.90   1.20   25.00
pair_coeff  2256  3014   gauss/wall   -5.0   11.27   1.20   25.00
pair_coeff  2256  3015   gauss/wall   -5.0    7.81   1.20   25.00
pair_coeff  2256  3016   gauss/wall   -5.0   13.77   1.20   25.00
pair_coeff  2256  3019   gauss/wall   -5.0   17.13   1.20   25.00
pair_coeff  2256  3020   gauss/wall   -5.0   12.84   1.20   25.00
pair_coeff  2256  3021   gauss/wall   -5.0   16.35   1.20   25.00
pair_coeff  2263  3002   gauss/wall   -5.0   16.84   1.20   25.00
pair_coeff  2263  3003   gauss/wall   -5.0    7.65   1.20   25.00
pair_coeff  2263  3004   gauss/wall   -5.0   12.06   1.20   25.00
pair_coeff  2263  3005   gauss/wall   -5.0   13.22   1.20   25.00
pair_coeff  2263  3006   gauss/wall   -5.0   11.07   1.20   25.00
pair_coeff  2263  3007   gauss/wall   -5.0   16.90   1.20   25.00
pair_coeff  2263  3014   gauss/wall   -5.0   11.27   1.20   25.00
pair_coeff  2263  3015   gauss/wall   -5.0    7.81   1.20   25.00
pair_coeff  2263  3016   gauss/wall   -5.0   13.77   1.20   25.00
pair_coeff  2263  3019   gauss/wall   -5.0   17.13   1.20   25.00
pair_coeff  2263  3020   gauss/wall   -5.0   12.84   1.20   25.00
pair_coeff  2263  3021   gauss/wall   -5.0   16.35   1.20   25.00
pair_coeff  2267  3002   gauss/wall   -5.0   16.84   1.20   25.00
pair_coeff  2267  3003   gauss/wall   -5.0    7.65   1.20   25.00
pair_coeff  2267  3004   gauss/wall   -5.0   12.06   1.20   25.00
pair_coeff  2267  3005   gauss/wall   -5.0   13.22   1.20   25.00
pair_coeff  2267  3006   gauss/wall   -5.0   11.07   1.20   25.00
pair_coeff  2267  3007   gauss/wall   -5.0   16.90   1.20   25.00
pair_coeff  2267  3014   gauss/wall   -5.0   11.27   1.20   25.00
pair_coeff  2267  3015   gauss/wall   -5.0    7.81   1.20   25.00
pair_coeff  2267  3016   gauss/wall   -5.0   13.77   1.20   25.00
pair_coeff  2267  3019   gauss/wall   -5.0   17.13   1.20   25.00
pair_coeff  2267  3020   gauss/wall   -5.0   12.84   1.20   25.00
pair_coeff  2267  3021   gauss/wall   -5.0   16.35   1.20   25.00
pair_coeff  2268  3002   gauss/wall   -5.0   16.84   1.20   25.00
pair_coeff  2268  3003   gauss/wall   -5.0    7.65   1.20   25.00
pair_coeff  2268  3004   gauss/wall   -5.0   12.06   1.20   25.00
pair_coeff  2268  3005   gauss/wall   -5.0   13.22   1.20   25.00
pair_coeff  2268  3006   gauss/wall   -5.0   11.07   1.20   25.00
pair_coeff  2268  3007   gauss/wall   -5.0   16.90   1.20   25.00
pair_coeff  2268  3014   gauss/wall   -5.0   11.27   1.20   25.00
pair_coeff  2268  3015   gauss/wall   -5.0    7.81   1.20   25.00
pair_coeff  2268  3016   gauss/wall   -5.0   13.77   1.20   25.00
pair_coeff  2268  3019   gauss/wall   -5.0   17.13   1.20   25.00
pair_coeff  2268  3020   gauss/wall   -5.0   12.84   1.20   25.00
pair_coeff  2268  3021   gauss/wall   -5.0   16.35   1.20   25.00
pair_coeff  2352  3002   gauss/wall   -5.0   16.84   1.20   25.00
pair_coeff  2352  3003   gauss/wall   -5.0    7.65   1.20   25.00
pair_coeff  2352  3004   gauss/wall   -5.0   12.06   1.20   25.00
pair_coeff  2352  3005   gauss/wall   -5.0   13.22   1.20   25.00
pair_coeff  2352  3006   gauss/wall   -5.0   11.07   1.20   25.00
pair_coeff  2352  3007   gauss/wall   -5.0   16.90   1.20   25.00
pair_coeff  2352  3014   gauss/wall   -5.0   11.27   1.20   25.00
pair_coeff  2352  3015   gauss/wall   -5.0    7.81   1.20   25.00
pair_coeff  2352  3016   gauss/wall   -5.0   13.77   1.20   25.00
pair_coeff  2352  3019   gauss/wall   -5.0   17.13   1.20   25.00
pair_coeff  2352  3020   gauss/wall   -5.0   12.84   1.20   25.00
pair_coeff  2352  3021   gauss/wall   -5.0   16.35   1.20   25.00
pair_coeff  2353  3002   gauss/wall   -5.0   16.84   1.20   25.00
pair_coeff  2353  3003   gauss/wall   -5.0    7.65   1.20   25.00
pair_coeff  2353  3004   gauss/wall   -5.0   12.06   1.20   25.00
pair_coeff  2353  3005   gauss/wall   -5.0   13.22   1.20   25.00
pair_coeff  2353  3006   gauss/wall   -5.0   11.07   1.20   25.00
pair_coeff  2353  3007   gauss/wall   -5.0   16.90   1.20   25.00
pair_coeff  2353  3014   gauss/wall   -5.0   11.27   1.20   25.00
pair_coeff  2353  3015   gauss/wall   -5.0    7.81   1.20   25.00
pair_coeff  2353  3016   gauss/wall   -5.0   13.77   1.20   25.00
pair_coeff  2353  3019   gauss/wall   -5.0   17.13   1.20   25.00
pair_coeff  2353  3020   gauss/wall   -5.0   12.84   1.20   25.00
pair_coeff  2353  3021   gauss/wall   -5.0   16.35   1.20   25.00
pair_coeff  2357  3002   gauss/wall   -5.0   16.84   1.20   25.00
pair_coeff  2357  3003   gauss/wall   -5.0    7.65   1.20   25.00
pair_coeff  2357  3004   gauss/wall   -5.0   12.06   1.20   25.00
pair_coeff  2357  3005   gauss/wall   -5.0   13.22   1.20   25.00
pair_coeff  2357  3006   gauss/wall   -5.0   11.07   1.20   25.00
pair_coeff  2357  3007   gauss/wall   -5.0   16.90   1.20   25.00
pair_coeff  2357  3014   gauss/wall   -5.0   11.27   1.20   25.00
pair_coeff  2357  3015   gauss/wall   -5.0    7.81   1.20   25.00
pair_coeff  2357  3016   gauss/wall   -5.0   13.77   1.20   25.00
pair_coeff  2357  3019   gauss/wall   -5.0   17.13   1.20   25.00
pair_coeff  2357  3020   gauss/wall   -5.0   12.84   1.20   25.00
pair_coeff  2357  3021   gauss/wall   -5.0   16.35   1.20   25.00
pair_coeff  2358  3002   gauss/wall   -5.0   16.84   1.20   25.00
pair_coeff  2358  3003   gauss/wall   -5.0    7.65   1.20   25.00
pair_coeff  2358  3004   gauss/wall   -5.0   12.06   1.20   25.00
pair_coeff  2358  3005   gauss/wall   -5.0   13.22   1.20   25.00
pair_coeff  2358  3006   gauss/wall   -5.0   11.07   1.20   25.00
pair_coeff  2358  3007   gauss/wall   -5.0   16.90   1.20   25.00
pair_coeff  2358  3014   gauss/wall   -5.0   11.27   1.20   25.00
pair_coeff  2358  3015   gauss/wall   -5.0    7.81   1.20   25.00
pair_coeff  2358  3016   gauss/wall   -5.0   13.77   1.20   25.00
pair_coeff  2358  3019   gauss/wall   -5.0   17.13   1.20   25.00
pair_coeff  2358  3020   gauss/wall   -5.0   12.84   1.20   25.00
pair_coeff  2358  3021   gauss/wall   -5.0   16.35   1.20   25.00
pair_coeff  2360  3002   gauss/wall   -5.0   16.84   1.20   25.00
pair_coeff  2360  3003   gauss/wall   -5.0    7.65   1.20   25.00
pair_coeff  2360  3004   gauss/wall   -5.0   12.06   1.20   25.00
pair_coeff  2360  3005   gauss/wall   -5.0   13.22   1.20   25.00
pair_coeff  2360  3006   gauss/wall   -5.0   11.07   1.20   25.00
pair_coeff  2360  3007   gauss/wall   -5.0   16.90   1.20   25.00
pair_coeff  2360  3014   gauss/wall   -5.0   11.27   1.20   25.00
pair_coeff  2360  3015   gauss/wall   -5.0    7.81   1.20   25.00
pair_coeff  2360  3016   gauss/wall   -5.0   13.77   1.20   25.00
pair_coeff  2360  3019   gauss/wall   -5.0   17.13   1.20   25.00
pair_coeff  2360  3020   gauss/wall   -5.0   12.84   1.20   25.00
pair_coeff  2360  3021   gauss/wall   -5.0   16.35   1.20   25.00
pair_coeff  2361  3002   gauss/wall   -5.0   16.84   1.20   25.00
pair_coeff  2361  3003   gauss/wall   -5.0    7.65   1.20   25.00
pair_coeff  2361  3004   gauss/wall   -5.0   12.06   1.20   25.00
pair_coeff  2361  3005   gauss/wall   -5.0   13.22   1.20   25.00
pair_coeff  2361  3006   gauss/wall   -5.0   11.07   1.20   25.00
pair_coeff  2361  3007   gauss/wall   -5.0   16.90   1.20   25.00
pair_coeff  2361  3014   gauss/wall   -5.0   11.27   1.20   25.00
pair_coeff  2361  3015   gauss/wall   -5.0    7.81   1.20   25.00
pair_coeff  2361  3016   gauss/wall   -5.0   13.77   1.20   25.00
pair_coeff  2361  3019   gauss/wall   -5.0   17.13   1.20   25.00
pair_coeff  2361  3020   gauss/wall   -5.0   12.84   1.20   25.00
pair_coeff  2361  3021   gauss/wall   -5.0   16.35   1.20   25.00
pair_coeff  2363  3002   gauss/wall   -5.0   16.84   1.20   25.00
pair_coeff  2363  3003   gauss/wall   -5.0    7.65   1.20   25.00
pair_coeff  2363  3004   gauss/wall   -5.0   12.06   1.20   25.00
pair_coeff  2363  3005   gauss/wall   -5.0   13.22   1.20   25.00
pair_coeff  2363  3006   gauss/wall   -5.0   11.07   1.20   25.00
pair_coeff  2363  3007   gauss/wall   -5.0   16.90   1.20   25.00
pair_coeff  2363  3014   gauss/wall   -5.0   11.27   1.20   25.00
pair_coeff  2363  3015   gauss/wall   -5.0    7.81   1.20   25.00
pair_coeff  2363  3016   gauss/wall   -5.0   13.77   1.20   25.00
pair_coeff  2363  3019   gauss/wall   -5.0   17.13   1.20   25.00
pair_coeff  2363  3020   gauss/wall   -5.0   12.84   1.20   25.00
pair_coeff  2363  3021   gauss/wall   -5.0   16.35   1.20   25.00
pair_coeff  2368  3002   gauss/wall   -5.0   16.84   1.20   25.00
pair_coeff  2368  3003   gauss/wall   -5.0    7.65   1.20   25.00
pair_coeff  2368  3004   gauss/wall   -5.0   12.06   1.20   25.00
pair_coeff  2368  3005   gauss/wall   -5.0   13.22   1.20   25.00
pair_coeff  2368  3006   gauss/wall   -5.0   11.07   1.20   25.00
pair_coeff  2368  3007   gauss/wall   -5.0   16.90   1.20   25.00
pair_coeff  2368  3014   gauss/wall   -5.0   11.27   1.20   25.00
pair_coeff  2368  3015   gauss/wall   -5.0    7.81   1.20   25.00
pair_coeff  2368  3016   gauss/wall   -5.0   13.77   1.20   25.00
pair_coeff  2368  3019   gauss/wall   -5.0   17.13   1.20   25.00
pair_coeff  2368  3020   gauss/wall   -5.0   12.84   1.20   25.00
pair_coeff  2368  3021   gauss/wall   -5.0   16.35   1.20   25.00
pair_coeff  2370  3002   gauss/wall   -5.0   16.84   1.20   25.00
pair_coeff  2370  3003   gauss/wall   -5.0    7.65   1.20   25.00
pair_coeff  2370  3004   gauss/wall   -5.0   12.06   1.20   25.00
pair_coeff  2370  3005   gauss/wall   -5.0   13.22   1.20   25.00
pair_coeff  2370  3006   gauss/wall   -5.0   11.07   1.20   25.00
pair_coeff  2370  3007   gauss/wall   -5.0   16.90   1.20   25.00
pair_coeff  2370  3014   gauss/wall   -5.0   11.27   1.20   25.00
pair_coeff  2370  3015   gauss/wall   -5.0    7.81   1.20   25.00
pair_coeff  2370  3016   gauss/wall   -5.0   13.77   1.20   25.00
pair_coeff  2370  3019   gauss/wall   -5.0   17.13   1.20   25.00
pair_coeff  2370  3020   gauss/wall   -5.0   12.84   1.20   25.00
pair_coeff  2370  3021   gauss/wall   -5.0   16.35   1.20   25.00
pair_coeff  2376  3002   gauss/wall   -5.0   16.84   1.20   25.00
pair_coeff  2376  3003   gauss/wall   -5.0    7.65   1.20   25.00
pair_coeff  2376  3004   gauss/wall   -5.0   12.06   1.20   25.00
pair_coeff  2376  3005   gauss/wall   -5.0   13.22   1.20   25.00
pair_coeff  2376  3006   gauss/wall   -5.0   11.07   1.20   25.00
pair_coeff  2376  3007   gauss/wall   -5.0   16.90   1.20   25.00
pair_coeff  2376  3014   gauss/wall   -5.0   11.27   1.20   25.00
pair_coeff  2376  3015   gauss/wall   -5.0    7.81   1.20   25.00
pair_coeff  2376  3016   gauss/wall   -5.0   13.77   1.20   25.00
pair_coeff  2376  3019   gauss/wall   -5.0   17.13   1.20   25.00
pair_coeff  2376  3020   gauss/wall   -5.0   12.84   1.20   25.00
pair_coeff  2376  3021   gauss/wall   -5.0   16.35   1.20   25.00
pair_coeff  2378  3002   gauss/wall   -5.0   16.84   1.20   25.00
pair_coeff  2378  3003   gauss/wall   -5.0    7.65   1.20   25.00
pair_coeff  2378  3004   gauss/wall   -5.0   12.06   1.20   25.00
pair_coeff  2378  3005   gauss/wall   -5.0   13.22   1.20   25.00
pair_coeff  2378  3006   gauss/wall   -5.0   11.07   1.20   25.00
pair_coeff  2378  3007   gauss/wall   -5.0   16.90   1.20   25.00
pair_coeff  2378  3014   gauss/wall   -5.0   11.27   1.20   25.00
pair_coeff  2378  3015   gauss/wall   -5.0    7.81   1.20   25.00
pair_coeff  2378  3016   gauss/wall   -5.0   13.77   1.20   25.00
pair_coeff  2378  3019   gauss/wall   -5.0   17.13   1.20   25.00
pair_coeff  2378  3020   gauss/wall   -5.0   12.84   1.20   25.00
pair_coeff  2378  3021   gauss/wall   -5.0   16.35   1.20   25.00
pair_coeff  2383  3002   gauss/wall   -5.0   16.84   1.20   25.00
pair_coeff  2383  3003   gauss/wall   -5.0    7.65   1.20   25.00
pair_coeff  2383  3004   gauss/wall   -5.0   12.06   1.20   25.00
pair_coeff  2383  3005   gauss/wall   -5.0   13.22   1.20   25.00
pair_coeff  2383  3006   gauss/wall   -5.0   11.07   1.20   25.00
pair_coeff  2383  3007   gauss/wall   -5.0   16.90   1.20   25.00
pair_coeff  2383  3014   gauss/wall   -5.0   11.27   1.20   25.00
pair_coeff  2383  3015   gauss/wall   -5.0    7.81   1.20   25.00
pair_coeff  2383  3016   gauss/wall   -5.0   13.77   1.20   25.00
pair_coeff  2383  3019   gauss/wall   -5.0   17.13   1.20   25.00
pair_coeff  2383  3020   gauss/wall   -5.0   12.84   1.20   25.00
pair_coeff  2383  3021   gauss/wall   -5.0   16.35   1.20   25.00
pair_coeff  2390  3002   gauss/wall   -5.0   16.84   1.20   25.00
pair_coeff  2390  3003   gauss/wall   -5.0    7.65   1.20   25.00
pair_coeff  2390  3004   gauss/wall   -5.0   12.06   1.20   25.00
pair_coeff  2390  3005   gauss/wall   -5.0   13.22   1.20   25.00
pair_coeff  2390  3006   gauss/wall   -5.0   11.07   1.20   25.00
pair_coeff  2390  3007   gauss/wall   -5.0   16.90   1.20   25.00
pair_coeff  2390  3014   gauss/wall   -5.0   11.27   1.20   25.00
pair_coeff  2390  3015   gauss/wall   -5.0    7.81   1.20   25.00
pair_coeff  2390  3016   gauss/wall   -5.0   13.77   1.20   25.00
pair_coeff  2390  3019   gauss/wall   -5.0   17.13   1.20   25.00
pair_coeff  2390  3020   gauss/wall   -5.0   12.84   1.20   25.00
pair_coeff  2390  3021   gauss/wall   -5.0   16.35   1.20   25.00
pair_coeff  2397  3002   gauss/wall   -5.0   16.84   1.20   25.00
pair_coeff  2397  3003   gauss/wall   -5.0    7.65   1.20   25.00
pair_coeff  2397  3004   gauss/wall   -5.0   12.06   1.20   25.00
pair_coeff  2397  3005   gauss/wall   -5.0   13.22   1.20   25.00
pair_coeff  2397  3006   gauss/wall   -5.0   11.07   1.20   25.00
pair_coeff  2397  3007   gauss/wall   -5.0   16.90   1.20   25.00
pair_coeff  2397  3014   gauss/wall   -5.0   11.27   1.20   25.00
pair_coeff  2397  3015   gauss/wall   -5.0    7.81   1.20   25.00
pair_coeff  2397  3016   gauss/wall   -5.0   13.77   1.20   25.00
pair_coeff  2397  3019   gauss/wall   -5.0   17.13   1.20   25.00
pair_coeff  2397  3020   gauss/wall   -5.0   12.84   1.20   25.00
pair_coeff  2397  3021   gauss/wall   -5.0   16.35   1.20   25.00
pair_coeff  2403  3002   gauss/wall   -5.0   16.84   1.20   25.00
pair_coeff  2403  3003   gauss/wall   -5.0    7.65   1.20   25.00
pair_coeff  2403  3004   gauss/wall   -5.0   12.06   1.20   25.00
pair_coeff  2403  3005   gauss/wall   -5.0   13.22   1.20   25.00
pair_coeff  2403  3006   gauss/wall   -5.0   11.07   1.20   25.00
pair_coeff  2403  3007   gauss/wall   -5.0   16.90   1.20   25.00
pair_coeff  2403  3014   gauss/wall   -5.0   11.27   1.20   25.00
pair_coeff  2403  3015   gauss/wall   -5.0    7.81   1.20   25.00
pair_coeff  2403  3016   gauss/wall   -5.0   13.77   1.20   25.00
pair_coeff  2403  3019   gauss/wall   -5.0   17.13   1.20   25.00
pair_coeff  2403  3020   gauss/wall   -5.0   12.84   1.20   25.00
pair_coeff  2403  3021   gauss/wall   -5.0   16.35   1.20   25.00
