pair_coeff   465  2234   gauss/wall   -7.5   16.65   1.20   25.00
pair_coeff   466  2233   gauss/wall   -7.5   14.54   1.20   25.00
pair_coeff   617  2234   gauss/wall   -7.5   17.40   1.20   25.00
pair_coeff   618  2234   gauss/wall   -7.5   16.63   1.20   25.00
pair_coeff   619  2229   gauss/wall   -7.5   16.63   1.20   25.00
pair_coeff   620  2228   gauss/wall   -7.5   17.46   1.20   25.00
pair_coeff   620  2229   gauss/wall   -7.5   17.06   1.20   25.00
pair_coeff   621  2227   gauss/wall   -7.5   13.40   1.20   25.00
pair_coeff   621  2229   gauss/wall   -7.5   13.87   1.20   25.00
pair_coeff   622  2227   gauss/wall   -7.5   15.18   1.20   25.00
pair_coeff   622  2228   gauss/wall   -7.5   15.89   1.20   25.00
pair_coeff   630  2253   gauss/wall   -7.5   15.56   1.20   25.00
pair_coeff   631  2252   gauss/wall   -7.5   16.46   1.20   25.00
pair_coeff   635  2253   gauss/wall   -7.5   15.78   1.20   25.00
pair_coeff   636  2251   gauss/wall   -7.5   17.32   1.20   25.00
pair_coeff   636  2252   gauss/wall   -7.5   14.91   1.20   25.00
pair_coeff   636  2254   gauss/wall   -7.5   15.85   1.20   25.00
pair_coeff   637  2229   gauss/wall   -7.5   17.05   1.20   25.00
pair_coeff   637  2249   gauss/wall   -7.5   13.27   1.20   25.00
pair_coeff   637  2250   gauss/wall   -7.5   12.79   1.20   25.00
pair_coeff   637  2251   gauss/wall   -7.5   15.95   1.20   25.00
pair_coeff   638  2230   gauss/wall   -7.5   15.20   1.20   25.00
pair_coeff   638  2231   gauss/wall   -7.5   13.63   1.20   25.00
pair_coeff   638  2232   gauss/wall   -7.5   17.37   1.20   25.00
pair_coeff   638  2248   gauss/wall   -7.5   16.19   1.20   25.00
pair_coeff   638  2252   gauss/wall   -7.5   14.18   1.20   25.00
pair_coeff   638  2254   gauss/wall   -7.5   16.39   1.20   25.00
pair_coeff   639  2249   gauss/wall   -7.5   16.96   1.20   25.00
pair_coeff   640  2253   gauss/wall   -7.5   12.94   1.20   25.00
pair_coeff   647  2252   gauss/wall   -7.5   16.36   1.20   25.00
pair_coeff   647  2253   gauss/wall   -7.5   14.14   1.20   25.00
pair_coeff   648  2251   gauss/wall   -7.5   16.22   1.20   25.00
pair_coeff   648  2254   gauss/wall   -7.5   17.20   1.20   25.00
pair_coeff   649  2253   gauss/wall   -7.5   15.35   1.20   25.00
pair_coeff   650  2252   gauss/wall   -7.5   17.38   1.20   25.00
pair_coeff   659  2253   gauss/wall   -7.5   16.84   1.20   25.00
pair_coeff   659  2254   gauss/wall   -7.5   15.89   1.20   25.00
pair_coeff   660  2253   gauss/wall   -7.5   17.38   1.20   25.00
pair_coeff   666  2254   gauss/wall   -7.5   16.21   1.20   25.00
pair_coeff   667  2254   gauss/wall   -7.5   15.44   1.20   25.00
pair_coeff   680  2254   gauss/wall   -7.5   15.96   1.20   25.00
pair_coeff   681  2254   gauss/wall   -7.5   14.62   1.20   25.00
pair_coeff   682  2254   gauss/wall   -7.5   16.15   1.20   25.00
pair_coeff   560  2351   gauss/wall   -7.5   17.11   1.20   25.00
pair_coeff   560  2352   gauss/wall   -7.5   16.36   1.20   25.00
pair_coeff   560  2353   gauss/wall   -7.5   16.90   1.20   25.00
pair_coeff   561  2362   gauss/wall   -7.5   17.11   1.20   25.00
pair_coeff   577  2350   gauss/wall   -7.5   13.65   1.20   25.00
pair_coeff   578  2350   gauss/wall   -7.5   14.51   1.20   25.00
pair_coeff   578  2353   gauss/wall   -7.5   16.09   1.20   25.00
pair_coeff   579  2350   gauss/wall   -7.5   16.08   1.20   25.00
pair_coeff   579  2353   gauss/wall   -7.5   16.10   1.20   25.00
pair_coeff   581  2350   gauss/wall   -7.5   17.04   1.20   25.00
pair_coeff   582  2351   gauss/wall   -7.5   17.08   1.20   25.00
pair_coeff   582  2352   gauss/wall   -7.5   15.84   1.20   25.00
pair_coeff   583  2352   gauss/wall   -7.5   15.10   1.20   25.00
pair_coeff   584  2351   gauss/wall   -7.5   15.27   1.20   25.00
pair_coeff   585  2350   gauss/wall   -7.5   17.03   1.20   25.00
pair_coeff   590  2350   gauss/wall   -7.5   16.97   1.20   25.00
pair_coeff   591  2350   gauss/wall   -7.5   16.89   1.20   25.00
pair_coeff   592  2349   gauss/wall   -7.5   16.37   1.20   25.00
pair_coeff   593  2348   gauss/wall   -7.5   16.33   1.20   25.00
pair_coeff   593  2351   gauss/wall   -7.5   13.14   1.20   25.00
pair_coeff   593  2352   gauss/wall   -7.5   16.49   1.20   25.00
pair_coeff   594  2348   gauss/wall   -7.5   16.06   1.20   25.00
pair_coeff   594  2349   gauss/wall   -7.5   14.14   1.20   25.00
pair_coeff   594  2350   gauss/wall   -7.5   13.56   1.20   25.00
pair_coeff   594  2352   gauss/wall   -7.5   14.54   1.20   25.00
pair_coeff   594  2353   gauss/wall   -7.5   13.82   1.20   25.00
pair_coeff   594  2354   gauss/wall   -7.5   14.62   1.20   25.00
pair_coeff   595  2351   gauss/wall   -7.5   14.19   1.20   25.00
pair_coeff   596  2350   gauss/wall   -7.5   15.28   1.20   25.00
pair_coeff   604  2350   gauss/wall   -7.5   17.09   1.20   25.00
pair_coeff   605  2349   gauss/wall   -7.5   13.00   1.20   25.00
pair_coeff   605  2350   gauss/wall   -7.5   16.14   1.20   25.00
pair_coeff   606  2348   gauss/wall   -7.5   14.59   1.20   25.00
pair_coeff   606  2350   gauss/wall   -7.5   15.99   1.20   25.00
pair_coeff   617  2349   gauss/wall   -7.5   13.31   1.20   25.00
pair_coeff   618  2349   gauss/wall   -7.5   17.17   1.20   25.00
pair_coeff   621  2325   gauss/wall   -7.5   16.57   1.20   25.00
pair_coeff   621  2326   gauss/wall   -7.5   16.02   1.20   25.00
pair_coeff   622  2345   gauss/wall   -7.5   17.21   1.20   25.00
pair_coeff   624  2327   gauss/wall   -7.5   16.31   1.20   25.00
pair_coeff   624  2328   gauss/wall   -7.5   17.49   1.20   25.00
pair_coeff   625  2328   gauss/wall   -7.5   17.15   1.20   25.00
pair_coeff   625  2329   gauss/wall   -7.5   16.36   1.20   25.00
pair_coeff   628  2327   gauss/wall   -7.5   15.90   1.20   25.00
pair_coeff   629  2325   gauss/wall   -7.5   14.67   1.20   25.00
pair_coeff   629  2326   gauss/wall   -7.5   13.77   1.20   25.00
pair_coeff   629  2327   gauss/wall   -7.5   15.57   1.20   25.00
pair_coeff   630  2323   gauss/wall   -7.5   17.44   1.20   25.00
pair_coeff   630  2327   gauss/wall   -7.5   17.09   1.20   25.00
pair_coeff   631  2343   gauss/wall   -7.5   16.58   1.20   25.00
pair_coeff   632  2343   gauss/wall   -7.5   17.49   1.20   25.00
pair_coeff   632  2344   gauss/wall   -7.5   15.76   1.20   25.00
pair_coeff   636  2323   gauss/wall   -7.5   16.50   1.20   25.00
pair_coeff   636  2324   gauss/wall   -7.5   14.68   1.20   25.00
pair_coeff   636  2325   gauss/wall   -7.5   16.52   1.20   25.00
pair_coeff   636  2343   gauss/wall   -7.5   16.83   1.20   25.00
pair_coeff   637  2319   gauss/wall   -7.5   16.21   1.20   25.00
pair_coeff   637  2320   gauss/wall   -7.5   13.99   1.20   25.00
pair_coeff   637  2324   gauss/wall   -7.5   14.06   1.20   25.00
pair_coeff   638  2319   gauss/wall   -7.5   15.66   1.20   25.00
pair_coeff   638  2320   gauss/wall   -7.5   15.39   1.20   25.00
pair_coeff   638  2321   gauss/wall   -7.5   13.86   1.20   25.00
pair_coeff   638  2324   gauss/wall   -7.5   13.75   1.20   25.00
pair_coeff   638  2341   gauss/wall   -7.5   15.55   1.20   25.00
pair_coeff   638  2342   gauss/wall   -7.5   14.79   1.20   25.00
pair_coeff   639  2322   gauss/wall   -7.5   17.15   1.20   25.00
pair_coeff   639  2323   gauss/wall   -7.5   15.12   1.20   25.00
pair_coeff   639  2324   gauss/wall   -7.5   15.51   1.20   25.00
pair_coeff   640  2341   gauss/wall   -7.5   14.32   1.20   25.00
pair_coeff   640  2344   gauss/wall   -7.5   16.07   1.20   25.00
pair_coeff   641  2342   gauss/wall   -7.5   13.72   1.20   25.00
pair_coeff   642  2343   gauss/wall   -7.5   13.85   1.20   25.00
pair_coeff   642  2345   gauss/wall   -7.5   16.99   1.20   25.00
pair_coeff   643  2344   gauss/wall   -7.5   14.17   1.20   25.00
pair_coeff   647  2343   gauss/wall   -7.5   14.49   1.20   25.00
pair_coeff   647  2344   gauss/wall   -7.5   17.14   1.20   25.00
pair_coeff   648  2342   gauss/wall   -7.5   13.97   1.20   25.00
pair_coeff   648  2344   gauss/wall   -7.5   15.59   1.20   25.00
pair_coeff   649  2342   gauss/wall   -7.5   13.39   1.20   25.00
pair_coeff   650  2345   gauss/wall   -7.5   14.78   1.20   25.00
pair_coeff   651  2345   gauss/wall   -7.5   17.49   1.20   25.00
pair_coeff   660  2343   gauss/wall   -7.5   15.30   1.20   25.00
pair_coeff   661  2373   gauss/wall   -7.5   16.22   1.20   25.00
pair_coeff   669  2373   gauss/wall   -7.5   13.80   1.20   25.00
pair_coeff   671  2373   gauss/wall   -7.5   12.58   1.20   25.00
pair_coeff   671  2374   gauss/wall   -7.5   13.49   1.20   25.00
pair_coeff   802  2366   gauss/wall   -7.5   15.07   1.20   25.00
pair_coeff   802  2371   gauss/wall   -7.5   16.53   1.20   25.00
pair_coeff   803  2366   gauss/wall   -7.5   13.04   1.20   25.00
pair_coeff   803  2372   gauss/wall   -7.5   13.94   1.20   25.00
pair_coeff   814  2356   gauss/wall   -7.5   15.91   1.20   25.00
pair_coeff   814  2359   gauss/wall   -7.5   16.63   1.20   25.00
pair_coeff   814  2370   gauss/wall   -7.5   16.54   1.20   25.00
pair_coeff   814  2371   gauss/wall   -7.5   15.25   1.20   25.00
pair_coeff   815  2356   gauss/wall   -7.5   15.73   1.20   25.00
pair_coeff   815  2359   gauss/wall   -7.5   15.55   1.20   25.00
pair_coeff   815  2360   gauss/wall   -7.5   13.44   1.20   25.00
pair_coeff   815  2361   gauss/wall   -7.5   15.83   1.20   25.00
pair_coeff   815  2363   gauss/wall   -7.5   17.23   1.20   25.00
pair_coeff   815  2366   gauss/wall   -7.5   13.71   1.20   25.00
pair_coeff   815  2370   gauss/wall   -7.5   14.86   1.20   25.00
pair_coeff   815  2371   gauss/wall   -7.5   12.95   1.20   25.00
pair_coeff   816  2364   gauss/wall   -7.5   12.83   1.20   25.00
pair_coeff   816  2370   gauss/wall   -7.5   15.82   1.20   25.00
pair_coeff   817  2366   gauss/wall   -7.5   14.84   1.20   25.00
pair_coeff   817  2370   gauss/wall   -7.5   16.78   1.20   25.00
pair_coeff   818  2366   gauss/wall   -7.5   14.99   1.20   25.00
pair_coeff   818  2368   gauss/wall   -7.5   15.14   1.20   25.00
pair_coeff   818  2370   gauss/wall   -7.5   12.53   1.20   25.00
pair_coeff   818  2372   gauss/wall   -7.5   13.34   1.20   25.00
pair_coeff   819  2369   gauss/wall   -7.5   12.85   1.20   25.00
pair_coeff   819  2371   gauss/wall   -7.5   15.45   1.20   25.00
pair_coeff   594  2436   gauss/wall   -7.5   17.48   1.20   25.00
pair_coeff   619  2456   gauss/wall   -7.5   17.40   1.20   25.00
pair_coeff   620  2456   gauss/wall   -7.5   14.37   1.20   25.00
pair_coeff   621  2455   gauss/wall   -7.5   12.93   1.20   25.00
pair_coeff   621  2457   gauss/wall   -7.5   15.95   1.20   25.00
pair_coeff   622  2455   gauss/wall   -7.5   13.08   1.20   25.00
pair_coeff   622  2457   gauss/wall   -7.5   16.42   1.20   25.00
pair_coeff   623  2456   gauss/wall   -7.5   13.71   1.20   25.00
