pair_coeff   232  1828   gauss/wall   -7.75   17.26   1.20   25.00
pair_coeff   232  1842   gauss/wall   -7.75   16.37   1.20   25.00
pair_coeff   233  1823   gauss/wall   -7.75   12.59   1.20   25.00
pair_coeff   233  1825   gauss/wall   -7.75   14.25   1.20   25.00
pair_coeff   233  1828   gauss/wall   -7.75   14.10   1.20   25.00
pair_coeff   233  1829   gauss/wall   -7.75   16.31   1.20   25.00
pair_coeff   234  1823   gauss/wall   -7.75   15.83   1.20   25.00
pair_coeff   234  1825   gauss/wall   -7.75   13.46   1.20   25.00
pair_coeff   234  1829   gauss/wall   -7.75   13.94   1.20   25.00
pair_coeff   235  1828   gauss/wall   -7.75   14.98   1.20   25.00
pair_coeff   237  1827   gauss/wall   -7.75   16.76   1.20   25.00
pair_coeff   238  1827   gauss/wall   -7.75   13.68   1.20   25.00
pair_coeff   239  1827   gauss/wall   -7.75   13.75   1.20   25.00
pair_coeff   240  1827   gauss/wall   -7.75   15.71   1.20   25.00
pair_coeff   241  1803   gauss/wall   -7.75   13.47   1.20   25.00
pair_coeff   241  1804   gauss/wall   -7.75   16.71   1.20   25.00
pair_coeff   241  1819   gauss/wall   -7.75   17.09   1.20   25.00
pair_coeff   241  1827   gauss/wall   -7.75   15.19   1.20   25.00
pair_coeff   241  2007   gauss/wall   -7.75   16.41   1.20   25.00
pair_coeff   241  2008   gauss/wall   -7.75   16.31   1.20   25.00
pair_coeff   241  2009   gauss/wall   -7.75   14.96   1.20   25.00
pair_coeff   242  1803   gauss/wall   -7.75   13.09   1.20   25.00
pair_coeff   242  1804   gauss/wall   -7.75   14.91   1.20   25.00
pair_coeff   242  1818   gauss/wall   -7.75   15.95   1.20   25.00
pair_coeff   242  1987   gauss/wall   -7.75   16.03   1.20   25.00
pair_coeff   242  2010   gauss/wall   -7.75   15.51   1.20   25.00
pair_coeff   243  1802   gauss/wall   -7.75   17.14   1.20   25.00
pair_coeff   243  1818   gauss/wall   -7.75   12.55   1.20   25.00
pair_coeff   243  1819   gauss/wall   -7.75   12.93   1.20   25.00
pair_coeff   243  1827   gauss/wall   -7.75   15.18   1.20   25.00
pair_coeff   243  1958   gauss/wall   -7.75   16.71   1.20   25.00
pair_coeff   244  1814   gauss/wall   -7.75   16.93   1.20   25.00
pair_coeff   244  1819   gauss/wall   -7.75   17.39   1.20   25.00
pair_coeff   244  1823   gauss/wall   -7.75   15.95   1.20   25.00
pair_coeff   244  1826   gauss/wall   -7.75   14.17   1.20   25.00
pair_coeff   244  1958   gauss/wall   -7.75   15.00   1.20   25.00
pair_coeff   245  1814   gauss/wall   -7.75   16.86   1.20   25.00
pair_coeff   245  1818   gauss/wall   -7.75   17.33   1.20   25.00
pair_coeff   245  1958   gauss/wall   -7.75   14.24   1.20   25.00
pair_coeff   246  1957   gauss/wall   -7.75   16.75   1.20   25.00
pair_coeff   246  1958   gauss/wall   -7.75   13.67   1.20   25.00
pair_coeff   250  2007   gauss/wall   -7.75   16.63   1.20   25.00
pair_coeff   250  2008   gauss/wall   -7.75   16.35   1.20   25.00
pair_coeff   251  2007   gauss/wall   -7.75   15.04   1.20   25.00
pair_coeff   251  2008   gauss/wall   -7.75   15.89   1.20   25.00
pair_coeff   251  2009   gauss/wall   -7.75   13.13   1.20   25.00
pair_coeff   251  2010   gauss/wall   -7.75   16.10   1.20   25.00
pair_coeff   252  2007   gauss/wall   -7.75   14.27   1.20   25.00
pair_coeff   253  1958   gauss/wall   -7.75   16.68   1.20   25.00
pair_coeff   253  1990   gauss/wall   -7.75   14.31   1.20   25.00
pair_coeff   253  2007   gauss/wall   -7.75   17.38   1.20   25.00
pair_coeff   254  1958   gauss/wall   -7.75   13.20   1.20   25.00
pair_coeff   254  1990   gauss/wall   -7.75   13.44   1.20   25.00
pair_coeff   254  1998   gauss/wall   -7.75   17.21   1.20   25.00
pair_coeff   255  1957   gauss/wall   -7.75   14.60   1.20   25.00
pair_coeff   255  1991   gauss/wall   -7.75   16.92   1.20   25.00
pair_coeff   259  2007   gauss/wall   -7.75   16.34   1.20   25.00
pair_coeff   260  1990   gauss/wall   -7.75   15.96   1.20   25.00
pair_coeff   260  2006   gauss/wall   -7.75   16.53   1.20   25.00
pair_coeff   261  1975   gauss/wall   -7.75   17.22   1.20   25.00
pair_coeff   261  1978   gauss/wall   -7.75   17.13   1.20   25.00
pair_coeff   261  1991   gauss/wall   -7.75   15.91   1.20   25.00
pair_coeff   261  1998   gauss/wall   -7.75   13.34   1.20   25.00
pair_coeff   261  2000   gauss/wall   -7.75   15.71   1.20   25.00
pair_coeff   261  2001   gauss/wall   -7.75   14.68   1.20   25.00
pair_coeff   261  2006   gauss/wall   -7.75   16.97   1.20   25.00
pair_coeff   262  1990   gauss/wall   -7.75   14.18   1.20   25.00
pair_coeff   262  1998   gauss/wall   -7.75   16.10   1.20   25.00
pair_coeff   262  2006   gauss/wall   -7.75   12.88   1.20   25.00
pair_coeff   262  2007   gauss/wall   -7.75   15.43   1.20   25.00
pair_coeff   263  2001   gauss/wall   -7.75   16.30   1.20   25.00
pair_coeff   263  2006   gauss/wall   -7.75   13.75   1.20   25.00
pair_coeff   263  2007   gauss/wall   -7.75   14.85   1.20   25.00
pair_coeff   263  2011   gauss/wall   -7.75   17.13   1.20   25.00
pair_coeff   264  2007   gauss/wall   -7.75   12.88   1.20   25.00
pair_coeff   265  2007   gauss/wall   -7.75   13.31   1.20   25.00
pair_coeff   273  2007   gauss/wall   -7.75   17.21   1.20   25.00
pair_coeff   274  2006   gauss/wall   -7.75   15.54   1.20   25.00
pair_coeff   274  2007   gauss/wall   -7.75   13.34   1.20   25.00
pair_coeff   274  2008   gauss/wall   -7.75   16.71   1.20   25.00
pair_coeff   274  2011   gauss/wall   -7.75   12.55   1.20   25.00
pair_coeff   274  2021   gauss/wall   -7.75   15.67   1.20   25.00
pair_coeff   274  2023   gauss/wall   -7.75   17.16   1.20   25.00
pair_coeff   274  2024   gauss/wall   -7.75   14.56   1.20   25.00
pair_coeff   274  2025   gauss/wall   -7.75   13.14   1.20   25.00
pair_coeff   274  2028   gauss/wall   -7.75   17.07   1.20   25.00
pair_coeff   274  2029   gauss/wall   -7.75   16.30   1.20   25.00
pair_coeff   274  2033   gauss/wall   -7.75   13.88   1.20   25.00
pair_coeff   274  2034   gauss/wall   -7.75   15.77   1.20   25.00
pair_coeff   275  2007   gauss/wall   -7.75   13.30   1.20   25.00
pair_coeff   275  2008   gauss/wall   -7.75   13.24   1.20   25.00
pair_coeff   275  2009   gauss/wall   -7.75   15.94   1.20   25.00
pair_coeff   275  2011   gauss/wall   -7.75   17.42   1.20   25.00
pair_coeff   275  2021   gauss/wall   -7.75   12.75   1.20   25.00
pair_coeff   275  2023   gauss/wall   -7.75   13.73   1.20   25.00
pair_coeff   275  2025   gauss/wall   -7.75   15.52   1.20   25.00
pair_coeff   275  2033   gauss/wall   -7.75   15.88   1.20   25.00
pair_coeff   275  2034   gauss/wall   -7.75   16.28   1.20   25.00
pair_coeff   276  2020   gauss/wall   -7.75   15.93   1.20   25.00
pair_coeff   276  2021   gauss/wall   -7.75   14.13   1.20   25.00
pair_coeff   276  2023   gauss/wall   -7.75   17.04   1.20   25.00
