pair_coeff   446  2479   gauss/wall   -5.0   10.38   1.20   25.00
pair_coeff   446  2485   gauss/wall   -5.0   10.01   1.20   25.00
pair_coeff   447  2479   gauss/wall   -5.0   11.59   1.20   25.00
pair_coeff   447  2486   gauss/wall   -5.0   12.31   1.20   25.00
pair_coeff   447  2493   gauss/wall   -5.0   10.89   1.20   25.00
pair_coeff   447  2507   gauss/wall   -5.0   11.43   1.20   25.00
pair_coeff   448  2486   gauss/wall   -5.0   10.70   1.20   25.00
pair_coeff   448  2487   gauss/wall   -5.0   12.80   1.20   25.00
pair_coeff   448  2507   gauss/wall   -5.0   12.04   1.20   25.00
pair_coeff   448  2650   gauss/wall   -5.0   13.21   1.20   25.00
pair_coeff   448  2651   gauss/wall   -5.0   10.89   1.20   25.00
pair_coeff   448  2652   gauss/wall   -5.0   13.10   1.20   25.00
pair_coeff   448  2656   gauss/wall   -5.0   13.03   1.20   25.00
pair_coeff   449  2469   gauss/wall   -5.0   12.38   1.20   25.00
pair_coeff   449  2472   gauss/wall   -5.0   13.76   1.20   25.00
pair_coeff   449  2508   gauss/wall   -5.0   13.20   1.20   25.00
pair_coeff   449  2650   gauss/wall   -5.0   13.44   1.20   25.00
pair_coeff   449  2656   gauss/wall   -5.0   12.67   1.20   25.00
pair_coeff   449  2657   gauss/wall   -5.0   11.08   1.20   25.00
pair_coeff   449  2658   gauss/wall   -5.0   12.63   1.20   25.00
pair_coeff   450  2468   gauss/wall   -5.0   13.77   1.20   25.00
pair_coeff   450  2469   gauss/wall   -5.0   10.17   1.20   25.00
pair_coeff   450  2470   gauss/wall   -5.0   12.96   1.20   25.00
pair_coeff   450  2473   gauss/wall   -5.0    9.48   1.20   25.00
pair_coeff   450  2477   gauss/wall   -5.0   13.55   1.20   25.00
pair_coeff   450  2478   gauss/wall   -5.0   10.29   1.20   25.00
pair_coeff   450  2502   gauss/wall   -5.0   14.59   1.20   25.00
pair_coeff   450  2508   gauss/wall   -5.0   11.23   1.20   25.00
pair_coeff   450  2623   gauss/wall   -5.0   11.80   1.20   25.00
pair_coeff   450  2658   gauss/wall   -5.0   11.92   1.20   25.00
pair_coeff   450  2659   gauss/wall   -5.0   13.48   1.20   25.00
pair_coeff   450  2660   gauss/wall   -5.0   14.46   1.20   25.00
pair_coeff   451  2471   gauss/wall   -5.0   13.35   1.20   25.00
pair_coeff   451  2500   gauss/wall   -5.0   13.14   1.20   25.00
pair_coeff   451  2537   gauss/wall   -5.0   12.14   1.20   25.00
pair_coeff   451  2623   gauss/wall   -5.0   11.72   1.20   25.00
pair_coeff   451  2661   gauss/wall   -5.0   13.84   1.20   25.00
pair_coeff   451  2662   gauss/wall   -5.0   12.75   1.20   25.00
pair_coeff   451  2663   gauss/wall   -5.0   11.38   1.20   25.00
pair_coeff   452  2477   gauss/wall   -5.0   12.01   1.20   25.00
pair_coeff   453  2473   gauss/wall   -5.0   13.31   1.20   25.00
pair_coeff   453  2494   gauss/wall   -5.0   11.39   1.20   25.00
pair_coeff   453  2502   gauss/wall   -5.0   12.20   1.20   25.00
pair_coeff   454  2494   gauss/wall   -5.0   13.59   1.20   25.00
pair_coeff   455  2507   gauss/wall   -5.0   10.97   1.20   25.00
pair_coeff   455  2513   gauss/wall   -5.0   13.54   1.20   25.00
pair_coeff   455  2514   gauss/wall   -5.0   10.75   1.20   25.00
pair_coeff   456  2505   gauss/wall   -5.0   11.26   1.20   25.00
pair_coeff   456  2506   gauss/wall   -5.0   11.54   1.20   25.00
pair_coeff   456  2507   gauss/wall   -5.0   11.78   1.20   25.00
pair_coeff   456  2515   gauss/wall   -5.0   11.74   1.20   25.00
pair_coeff   457  2506   gauss/wall   -5.0   10.02   1.20   25.00
pair_coeff   462  2491   gauss/wall   -5.0   14.04   1.20   25.00
pair_coeff   463  2484   gauss/wall   -5.0   12.39   1.20   25.00
pair_coeff   463  2504   gauss/wall   -5.0   13.55   1.20   25.00
pair_coeff   464  2491   gauss/wall   -5.0   13.79   1.20   25.00
pair_coeff   466  2485   gauss/wall   -5.0   12.58   1.20   25.00
pair_coeff   466  2490   gauss/wall   -5.0   12.76   1.20   25.00
pair_coeff   466  2491   gauss/wall   -5.0   12.18   1.20   25.00
pair_coeff   466  2492   gauss/wall   -5.0   13.59   1.20   25.00
pair_coeff   467  2490   gauss/wall   -5.0   12.62   1.20   25.00
pair_coeff   469  2492   gauss/wall   -5.0   12.79   1.20   25.00
pair_coeff   469  2505   gauss/wall   -5.0   12.07   1.20   25.00
pair_coeff   470  2505   gauss/wall   -5.0   12.17   1.20   25.00
pair_coeff   472  2484   gauss/wall   -5.0   12.32   1.20   25.00
pair_coeff   472  2504   gauss/wall   -5.0   12.75   1.20   25.00
pair_coeff   472  2506   gauss/wall   -5.0   10.24   1.20   25.00
pair_coeff   473  2484   gauss/wall   -5.0   14.05   1.20   25.00
pair_coeff   473  2489   gauss/wall   -5.0   12.41   1.20   25.00
pair_coeff   473  2490   gauss/wall   -5.0   10.78   1.20   25.00
pair_coeff   473  2655   gauss/wall   -5.0   11.69   1.20   25.00
pair_coeff   474  2491   gauss/wall   -5.0   11.76   1.20   25.00
pair_coeff   475  2492   gauss/wall   -5.0   14.23   1.20   25.00
pair_coeff   475  2633   gauss/wall   -5.0   14.71   1.20   25.00
pair_coeff   476  2492   gauss/wall   -5.0   10.59   1.20   25.00
pair_coeff   476  2506   gauss/wall   -5.0   10.63   1.20   25.00
pair_coeff   476  2507   gauss/wall   -5.0   13.11   1.20   25.00
pair_coeff   477  2489   gauss/wall   -5.0   13.84   1.20   25.00
pair_coeff   477  2622   gauss/wall   -5.0   13.33   1.20   25.00
pair_coeff   478  2478   gauss/wall   -5.0   13.85   1.20   25.00
pair_coeff   478  2483   gauss/wall   -5.0   12.27   1.20   25.00
pair_coeff   478  2502   gauss/wall   -5.0   13.44   1.20   25.00
pair_coeff   478  2503   gauss/wall   -5.0   11.51   1.20   25.00
pair_coeff   478  2517   gauss/wall   -5.0   11.71   1.20   25.00
pair_coeff   479  2471   gauss/wall   -5.0   11.73   1.20   25.00
pair_coeff   479  2501   gauss/wall   -5.0   13.74   1.20   25.00
pair_coeff   479  2511   gauss/wall   -5.0   13.42   1.20   25.00
pair_coeff   479  2518   gauss/wall   -5.0   10.01   1.20   25.00
pair_coeff   480  2501   gauss/wall   -5.0   12.01   1.20   25.00
pair_coeff   480  2509   gauss/wall   -5.0   10.55   1.20   25.00
pair_coeff   480  2519   gauss/wall   -5.0   12.38   1.20   25.00
pair_coeff   481  2509   gauss/wall   -5.0   13.33   1.20   25.00
pair_coeff   481  2510   gauss/wall   -5.0   11.07   1.20   25.00
pair_coeff   482  2510   gauss/wall   -5.0   12.84   1.20   25.00
pair_coeff   482  2511   gauss/wall   -5.0   13.73   1.20   25.00
pair_coeff   483  2478   gauss/wall   -5.0   13.58   1.20   25.00
pair_coeff   483  2508   gauss/wall   -5.0   14.40   1.20   25.00
pair_coeff   483  2511   gauss/wall   -5.0   11.91   1.20   25.00
pair_coeff   484  2503   gauss/wall   -5.0   10.66   1.20   25.00
pair_coeff   484  2512   gauss/wall   -5.0   12.98   1.20   25.00
pair_coeff   484  2513   gauss/wall   -5.0   14.38   1.20   25.00
pair_coeff   485  2482   gauss/wall   -5.0   10.62   1.20   25.00
pair_coeff   486  2484   gauss/wall   -5.0   13.71   1.20   25.00
pair_coeff   486  2503   gauss/wall   -5.0   12.53   1.20   25.00
pair_coeff   486  2507   gauss/wall   -5.0   12.27   1.20   25.00
pair_coeff   486  2516   gauss/wall   -5.0   11.62   1.20   25.00
pair_coeff   487  2484   gauss/wall   -5.0   11.38   1.20   25.00
pair_coeff   488  2491   gauss/wall   -5.0   12.51   1.20   25.00
pair_coeff   489  2679   gauss/wall   -5.0   12.77   1.20   25.00
pair_coeff   491  2491   gauss/wall   -5.0    9.35   1.20   25.00
pair_coeff   491  2516   gauss/wall   -5.0   11.89   1.20   25.00
pair_coeff   492  2488   gauss/wall   -5.0   13.71   1.20   25.00
pair_coeff   493  2468   gauss/wall   -5.0    9.49   1.20   25.00
pair_coeff   493  2469   gauss/wall   -5.0    9.92   1.20   25.00
pair_coeff   493  2481   gauss/wall   -5.0   11.86   1.20   25.00
pair_coeff   493  2486   gauss/wall   -5.0   12.86   1.20   25.00
pair_coeff   493  2512   gauss/wall   -5.0   10.70   1.20   25.00
pair_coeff   493  2527   gauss/wall   -5.0   13.57   1.20   25.00
pair_coeff   494  2470   gauss/wall   -5.0   12.21   1.20   25.00
pair_coeff   494  2471   gauss/wall   -5.0   13.95   1.20   25.00
pair_coeff   494  2502   gauss/wall   -5.0   13.37   1.20   25.00
pair_coeff   494  2526   gauss/wall   -5.0   13.66   1.20   25.00
pair_coeff   494  2527   gauss/wall   -5.0   11.71   1.20   25.00
pair_coeff   495  2513   gauss/wall   -5.0   12.36   1.20   25.00
pair_coeff   495  2527   gauss/wall   -5.0   12.47   1.20   25.00
pair_coeff   496  2482   gauss/wall   -5.0   10.11   1.20   25.00
pair_coeff   496  2512   gauss/wall   -5.0   13.19   1.20   25.00
pair_coeff   496  2513   gauss/wall   -5.0   10.84   1.20   25.00
pair_coeff   499  2482   gauss/wall   -5.0   11.81   1.20   25.00
pair_coeff   499  2483   gauss/wall   -5.0   13.20   1.20   25.00
pair_coeff   499  2485   gauss/wall   -5.0    9.44   1.20   25.00
pair_coeff   499  2516   gauss/wall   -5.0   12.54   1.20   25.00
pair_coeff   499  2517   gauss/wall   -5.0   13.04   1.20   25.00
pair_coeff   500  2471   gauss/wall   -5.0   14.27   1.20   25.00
pair_coeff   500  2518   gauss/wall   -5.0    9.76   1.20   25.00
pair_coeff   500  2526   gauss/wall   -5.0   12.28   1.20   25.00
pair_coeff   500  2533   gauss/wall   -5.0   12.94   1.20   25.00
pair_coeff   500  2535   gauss/wall   -5.0   11.97   1.20   25.00
pair_coeff   501  2511   gauss/wall   -5.0   10.97   1.20   25.00
pair_coeff   501  2527   gauss/wall   -5.0   11.38   1.20   25.00
pair_coeff   501  2532   gauss/wall   -5.0   12.12   1.20   25.00
pair_coeff   501  2533   gauss/wall   -5.0   10.92   1.20   25.00
pair_coeff   501  2534   gauss/wall   -5.0   14.72   1.20   25.00
pair_coeff   502  2526   gauss/wall   -5.0   12.43   1.20   25.00
pair_coeff   503  2511   gauss/wall   -5.0   12.34   1.20   25.00
pair_coeff   504  2525   gauss/wall   -5.0   10.60   1.20   25.00
pair_coeff   506  2533   gauss/wall   -5.0   13.40   1.20   25.00
pair_coeff   509  2479   gauss/wall   -5.0   12.33   1.20   25.00
pair_coeff   509  2480   gauss/wall   -5.0   10.50   1.20   25.00
pair_coeff   509  2481   gauss/wall   -5.0   13.97   1.20   25.00
pair_coeff   510  2526   gauss/wall   -5.0   11.77   1.20   25.00
pair_coeff   510  2527   gauss/wall   -5.0    9.92   1.20   25.00
pair_coeff   511  2528   gauss/wall   -5.0    9.56   1.20   25.00
pair_coeff   511  2530   gauss/wall   -5.0   11.47   1.20   25.00
pair_coeff   514  2532   gauss/wall   -5.0   12.21   1.20   25.00
pair_coeff   514  2533   gauss/wall   -5.0   13.75   1.20   25.00
pair_coeff   514  2800   gauss/wall   -5.0   12.10   1.20   25.00
pair_coeff   515  2533   gauss/wall   -5.0   12.49   1.20   25.00
pair_coeff   516  2479   gauss/wall   -5.0   13.62   1.20   25.00
pair_coeff   517  2486   gauss/wall   -5.0   12.52   1.20   25.00
pair_coeff   517  2534   gauss/wall   -5.0   12.34   1.20   25.00
pair_coeff   518  2479   gauss/wall   -5.0    9.74   1.20   25.00
pair_coeff   518  2480   gauss/wall   -5.0   12.69   1.20   25.00
pair_coeff   518  2487   gauss/wall   -5.0   12.56   1.20   25.00
pair_coeff   518  2493   gauss/wall   -5.0   10.20   1.20   25.00
pair_coeff   518  2535   gauss/wall   -5.0   12.32   1.20   25.00
pair_coeff   519  2468   gauss/wall   -5.0   11.87   1.20   25.00
pair_coeff   519  2470   gauss/wall   -5.0   12.00   1.20   25.00
pair_coeff   519  2518   gauss/wall   -5.0   10.80   1.20   25.00
pair_coeff   519  2527   gauss/wall   -5.0   13.91   1.20   25.00
pair_coeff   520  2472   gauss/wall   -5.0   14.05   1.20   25.00
pair_coeff   520  2478   gauss/wall   -5.0    9.52   1.20   25.00
pair_coeff   520  2528   gauss/wall   -5.0   13.04   1.20   25.00
pair_coeff   520  2533   gauss/wall   -5.0   12.95   1.20   25.00
pair_coeff   520  2538   gauss/wall   -5.0   12.52   1.20   25.00
pair_coeff   520  2542   gauss/wall   -5.0   12.40   1.20   25.00
pair_coeff   521  2541   gauss/wall   -5.0   11.58   1.20   25.00
pair_coeff   521  2799   gauss/wall   -5.0   13.24   1.20   25.00
pair_coeff   522  2540   gauss/wall   -5.0   13.07   1.20   25.00
pair_coeff   522  2798   gauss/wall   -5.0   11.37   1.20   25.00
pair_coeff   523  2763   gauss/wall   -5.0   12.59   1.20   25.00
pair_coeff   523  2798   gauss/wall   -5.0   13.36   1.20   25.00
pair_coeff   524  2764   gauss/wall   -5.0   13.44   1.20   25.00
pair_coeff   524  2782   gauss/wall   -5.0   12.75   1.20   25.00
pair_coeff   524  2784   gauss/wall   -5.0   12.02   1.20   25.00
pair_coeff   524  2785   gauss/wall   -5.0   11.47   1.20   25.00
pair_coeff   525  2784   gauss/wall   -5.0   13.36   1.20   25.00
pair_coeff   526  2764   gauss/wall   -5.0   11.68   1.20   25.00
pair_coeff   529  2503   gauss/wall   -5.0   12.35   1.20   25.00
pair_coeff   530  2494   gauss/wall   -5.0   13.10   1.20   25.00
pair_coeff   530  2503   gauss/wall   -5.0   11.32   1.20   25.00
pair_coeff   530  2508   gauss/wall   -5.0   13.50   1.20   25.00
pair_coeff   530  2534   gauss/wall   -5.0   13.56   1.20   25.00
pair_coeff   530  2535   gauss/wall   -5.0   14.34   1.20   25.00
pair_coeff   531  2474   gauss/wall   -5.0   13.70   1.20   25.00
pair_coeff   531  2502   gauss/wall   -5.0   14.51   1.20   25.00
pair_coeff   531  2541   gauss/wall   -5.0   11.74   1.20   25.00
pair_coeff   531  2543   gauss/wall   -5.0   13.67   1.20   25.00
pair_coeff   531  2548   gauss/wall   -5.0   12.93   1.20   25.00
pair_coeff   531  2579   gauss/wall   -5.0   11.84   1.20   25.00
pair_coeff   532  2495   gauss/wall   -5.0   10.83   1.20   25.00
pair_coeff   532  2502   gauss/wall   -5.0   10.83   1.20   25.00
pair_coeff   532  2509   gauss/wall   -5.0   12.26   1.20   25.00
pair_coeff   532  2548   gauss/wall   -5.0   10.92   1.20   25.00
pair_coeff   533  2500   gauss/wall   -5.0   10.14   1.20   25.00
pair_coeff   533  2545   gauss/wall   -5.0    9.36   1.20   25.00
pair_coeff   533  2818   gauss/wall   -5.0   11.67   1.20   25.00
pair_coeff   534  2499   gauss/wall   -5.0   12.10   1.20   25.00
pair_coeff   534  2544   gauss/wall   -5.0   11.03   1.20   25.00
pair_coeff   534  2547   gauss/wall   -5.0   10.02   1.20   25.00
pair_coeff   535  2499   gauss/wall   -5.0   11.53   1.20   25.00
pair_coeff   535  2501   gauss/wall   -5.0   12.60   1.20   25.00
pair_coeff   535  2547   gauss/wall   -5.0   12.12   1.20   25.00
pair_coeff   537  2551   gauss/wall   -5.0   14.87   1.20   25.00
pair_coeff   538  2495   gauss/wall   -5.0   12.64   1.20   25.00
pair_coeff   538  2497   gauss/wall   -5.0   14.46   1.20   25.00
pair_coeff   538  2498   gauss/wall   -5.0   10.46   1.20   25.00
pair_coeff   538  2501   gauss/wall   -5.0   12.85   1.20   25.00
pair_coeff   538  2547   gauss/wall   -5.0   12.02   1.20   25.00
pair_coeff   538  2549   gauss/wall   -5.0   12.61   1.20   25.00
pair_coeff   538  2550   gauss/wall   -5.0   14.62   1.20   25.00
pair_coeff   538  2551   gauss/wall   -5.0   13.18   1.20   25.00
pair_coeff   539  2475   gauss/wall   -5.0   11.71   1.20   25.00
pair_coeff   539  2495   gauss/wall   -5.0   11.68   1.20   25.00
pair_coeff   539  2497   gauss/wall   -5.0   11.84   1.20   25.00
pair_coeff   539  2545   gauss/wall   -5.0   11.78   1.20   25.00
pair_coeff   539  2546   gauss/wall   -5.0   10.00   1.20   25.00
pair_coeff   539  2549   gauss/wall   -5.0   10.02   1.20   25.00
pair_coeff   539  2550   gauss/wall   -5.0   11.22   1.20   25.00
pair_coeff   540  2501   gauss/wall   -5.0   13.77   1.20   25.00
pair_coeff   540  2539   gauss/wall   -5.0   13.74   1.20   25.00
pair_coeff   540  2549   gauss/wall   -5.0   12.06   1.20   25.00
pair_coeff   541  2476   gauss/wall   -5.0   14.18   1.20   25.00
pair_coeff   541  2499   gauss/wall   -5.0   13.41   1.20   25.00
pair_coeff   541  2501   gauss/wall   -5.0   11.47   1.20   25.00
pair_coeff   541  2520   gauss/wall   -5.0   13.04   1.20   25.00
pair_coeff   541  2547   gauss/wall   -5.0   13.89   1.20   25.00
pair_coeff   542  2500   gauss/wall   -5.0   12.36   1.20   25.00
pair_coeff   542  2547   gauss/wall   -5.0   11.64   1.20   25.00
pair_coeff   542  2818   gauss/wall   -5.0   13.73   1.20   25.00
pair_coeff   543  2511   gauss/wall   -5.0   14.32   1.20   25.00
pair_coeff   543  2548   gauss/wall   -5.0   13.71   1.20   25.00
pair_coeff   543  2569   gauss/wall   -5.0   13.54   1.20   25.00
pair_coeff   543  2797   gauss/wall   -5.0   13.33   1.20   25.00
pair_coeff   544  2502   gauss/wall   -5.0   10.41   1.20   25.00
pair_coeff   544  2782   gauss/wall   -5.0   11.06   1.20   25.00
pair_coeff   544  2786   gauss/wall   -5.0   12.98   1.20   25.00
pair_coeff   544  2799   gauss/wall   -5.0   13.16   1.20   25.00
pair_coeff   545  2512   gauss/wall   -5.0   12.27   1.20   25.00
pair_coeff   545  2785   gauss/wall   -5.0   13.54   1.20   25.00
pair_coeff   545  2786   gauss/wall   -5.0   11.70   1.20   25.00
pair_coeff   545  2797   gauss/wall   -5.0   12.04   1.20   25.00
pair_coeff   546  2478   gauss/wall   -5.0   11.44   1.20   25.00
pair_coeff   546  2494   gauss/wall   -5.0   14.61   1.20   25.00
pair_coeff   546  2512   gauss/wall   -5.0   12.89   1.20   25.00
pair_coeff   546  2541   gauss/wall   -5.0   12.41   1.20   25.00
pair_coeff   546  2578   gauss/wall   -5.0   13.40   1.20   25.00
pair_coeff   546  2797   gauss/wall   -5.0   11.71   1.20   25.00
pair_coeff   546  2798   gauss/wall   -5.0   12.56   1.20   25.00
pair_coeff   547  2502   gauss/wall   -5.0   11.84   1.20   25.00
pair_coeff   547  2518   gauss/wall   -5.0   12.84   1.20   25.00
pair_coeff   547  2537   gauss/wall   -5.0   12.19   1.20   25.00
pair_coeff   547  2547   gauss/wall   -5.0   11.91   1.20   25.00
pair_coeff   547  2549   gauss/wall   -5.0    9.44   1.20   25.00
pair_coeff   547  2579   gauss/wall   -5.0    9.17   1.20   25.00
pair_coeff   547  2623   gauss/wall   -5.0   11.50   1.20   25.00
pair_coeff   548  2547   gauss/wall   -5.0   12.70   1.20   25.00
pair_coeff   548  2553   gauss/wall   -5.0    9.87   1.20   25.00
pair_coeff   548  2561   gauss/wall   -5.0   12.59   1.20   25.00
pair_coeff   548  2567   gauss/wall   -5.0   11.39   1.20   25.00
pair_coeff   548  2568   gauss/wall   -5.0   12.29   1.20   25.00
pair_coeff   548  2571   gauss/wall   -5.0   12.64   1.20   25.00
pair_coeff   548  2796   gauss/wall   -5.0    9.99   1.20   25.00
pair_coeff   548  2818   gauss/wall   -5.0   13.19   1.20   25.00
pair_coeff   549  2524   gauss/wall   -5.0   10.00   1.20   25.00
pair_coeff   549  2525   gauss/wall   -5.0   11.07   1.20   25.00
pair_coeff   549  2528   gauss/wall   -5.0   12.61   1.20   25.00
pair_coeff   549  2529   gauss/wall   -5.0   12.73   1.20   25.00
pair_coeff   549  2552   gauss/wall   -5.0   11.69   1.20   25.00
pair_coeff   549  2554   gauss/wall   -5.0    9.78   1.20   25.00
pair_coeff   549  2557   gauss/wall   -5.0   11.90   1.20   25.00
pair_coeff   549  2560   gauss/wall   -5.0   12.01   1.20   25.00
pair_coeff   549  2777   gauss/wall   -5.0   13.02   1.20   25.00
pair_coeff   549  2779   gauss/wall   -5.0   12.44   1.20   25.00
pair_coeff   549  2818   gauss/wall   -5.0   13.02   1.20   25.00
pair_coeff   550  2519   gauss/wall   -5.0   11.76   1.20   25.00
pair_coeff   550  2524   gauss/wall   -5.0   12.62   1.20   25.00
pair_coeff   550  2552   gauss/wall   -5.0   10.41   1.20   25.00
pair_coeff   550  2556   gauss/wall   -5.0   11.79   1.20   25.00
pair_coeff   550  2557   gauss/wall   -5.0   12.35   1.20   25.00
pair_coeff   550  2777   gauss/wall   -5.0   13.24   1.20   25.00
pair_coeff   550  2778   gauss/wall   -5.0   12.73   1.20   25.00
pair_coeff   550  2795   gauss/wall   -5.0   12.37   1.20   25.00
pair_coeff   551  2509   gauss/wall   -5.0   14.19   1.20   25.00
pair_coeff   551  2511   gauss/wall   -5.0   12.65   1.20   25.00
pair_coeff   551  2547   gauss/wall   -5.0   12.58   1.20   25.00
pair_coeff   551  2552   gauss/wall   -5.0   11.72   1.20   25.00
pair_coeff   551  2553   gauss/wall   -5.0   13.13   1.20   25.00
pair_coeff   551  2569   gauss/wall   -5.0   11.73   1.20   25.00
pair_coeff   551  2777   gauss/wall   -5.0   13.96   1.20   25.00
pair_coeff   551  2795   gauss/wall   -5.0   12.59   1.20   25.00
pair_coeff   551  2817   gauss/wall   -5.0   12.17   1.20   25.00
pair_coeff   552  2523   gauss/wall   -5.0   11.83   1.20   25.00
pair_coeff   552  2524   gauss/wall   -5.0   12.92   1.20   25.00
pair_coeff   552  2570   gauss/wall   -5.0   10.22   1.20   25.00
pair_coeff   552  2777   gauss/wall   -5.0   11.14   1.20   25.00
pair_coeff   552  2795   gauss/wall   -5.0   12.83   1.20   25.00
pair_coeff   553  2569   gauss/wall   -5.0   11.36   1.20   25.00
pair_coeff   553  2570   gauss/wall   -5.0   12.08   1.20   25.00
pair_coeff   553  2777   gauss/wall   -5.0   12.65   1.20   25.00
pair_coeff   553  2795   gauss/wall   -5.0   13.16   1.20   25.00
pair_coeff   554  2525   gauss/wall   -5.0   12.15   1.20   25.00
pair_coeff   554  2796   gauss/wall   -5.0   12.69   1.20   25.00
pair_coeff   554  2817   gauss/wall   -5.0   11.29   1.20   25.00
pair_coeff   555  2526   gauss/wall   -5.0   10.67   1.20   25.00
pair_coeff   555  2527   gauss/wall   -5.0    9.87   1.20   25.00
pair_coeff   555  2548   gauss/wall   -5.0   14.44   1.20   25.00
pair_coeff   555  2554   gauss/wall   -5.0   12.50   1.20   25.00
pair_coeff   555  2568   gauss/wall   -5.0   14.65   1.20   25.00
pair_coeff   555  2569   gauss/wall   -5.0   11.66   1.20   25.00
pair_coeff   555  2570   gauss/wall   -5.0   13.62   1.20   25.00
pair_coeff   555  2782   gauss/wall   -5.0   13.61   1.20   25.00
pair_coeff   555  2795   gauss/wall   -5.0   12.86   1.20   25.00
pair_coeff   556  2576   gauss/wall   -5.0   14.03   1.20   25.00
pair_coeff   557  2513   gauss/wall   -5.0   13.26   1.20   25.00
pair_coeff   558  2515   gauss/wall   -5.0   14.84   1.20   25.00
pair_coeff   564  2515   gauss/wall   -5.0   12.30   1.20   25.00
pair_coeff   565  2515   gauss/wall   -5.0   13.33   1.20   25.00
pair_coeff   566  2515   gauss/wall   -5.0   13.07   1.20   25.00
pair_coeff   567  2517   gauss/wall   -5.0    9.47   1.20   25.00
pair_coeff   568  2494   gauss/wall   -5.0   13.80   1.20   25.00
pair_coeff   568  2536   gauss/wall   -5.0   10.09   1.20   25.00
pair_coeff   568  2548   gauss/wall   -5.0   10.63   1.20   25.00
pair_coeff   568  2574   gauss/wall   -5.0   11.57   1.20   25.00
pair_coeff   568  2576   gauss/wall   -5.0   12.78   1.20   25.00
pair_coeff   568  2579   gauss/wall   -5.0    9.48   1.20   25.00
pair_coeff   568  2583   gauss/wall   -5.0   13.64   1.20   25.00
pair_coeff   568  2586   gauss/wall   -5.0   11.69   1.20   25.00
pair_coeff   569  2509   gauss/wall   -5.0   13.57   1.20   25.00
pair_coeff   569  2538   gauss/wall   -5.0   11.36   1.20   25.00
pair_coeff   569  2542   gauss/wall   -5.0   11.62   1.20   25.00
pair_coeff   569  2565   gauss/wall   -5.0   13.22   1.20   25.00
pair_coeff   569  2582   gauss/wall   -5.0   13.54   1.20   25.00
pair_coeff   570  2519   gauss/wall   -5.0   11.64   1.20   25.00
pair_coeff   570  2526   gauss/wall   -5.0   13.00   1.20   25.00
pair_coeff   570  2533   gauss/wall   -5.0   10.60   1.20   25.00
pair_coeff   570  2535   gauss/wall   -5.0   10.85   1.20   25.00
pair_coeff   570  2538   gauss/wall   -5.0   11.13   1.20   25.00
pair_coeff   570  2554   gauss/wall   -5.0   14.05   1.20   25.00
pair_coeff   570  2560   gauss/wall   -5.0   12.98   1.20   25.00
pair_coeff   570  2565   gauss/wall   -5.0   13.18   1.20   25.00
pair_coeff   571  2512   gauss/wall   -5.0   11.45   1.20   25.00
pair_coeff   571  2513   gauss/wall   -5.0   12.08   1.20   25.00
pair_coeff   571  2517   gauss/wall   -5.0   11.35   1.20   25.00
pair_coeff   571  2518   gauss/wall   -5.0   10.24   1.20   25.00
pair_coeff   571  2535   gauss/wall   -5.0   10.90   1.20   25.00
pair_coeff   571  2562   gauss/wall   -5.0   12.94   1.20   25.00
pair_coeff   571  2573   gauss/wall   -5.0   13.84   1.20   25.00
pair_coeff   571  2574   gauss/wall   -5.0   10.84   1.20   25.00
pair_coeff   571  2577   gauss/wall   -5.0   12.14   1.20   25.00
pair_coeff   572  2514   gauss/wall   -5.0   12.06   1.20   25.00
pair_coeff   572  2515   gauss/wall   -5.0   10.78   1.20   25.00
pair_coeff   572  2516   gauss/wall   -5.0   12.68   1.20   25.00
pair_coeff   572  2517   gauss/wall   -5.0   12.93   1.20   25.00
pair_coeff   572  2575   gauss/wall   -5.0   12.27   1.20   25.00
pair_coeff   572  2576   gauss/wall   -5.0   10.55   1.20   25.00
pair_coeff   573  2507   gauss/wall   -5.0   12.53   1.20   25.00
pair_coeff   573  2585   gauss/wall   -5.0   12.60   1.20   25.00
pair_coeff   574  2508   gauss/wall   -5.0   13.21   1.20   25.00
pair_coeff   574  2518   gauss/wall   -5.0   11.06   1.20   25.00
pair_coeff   574  2536   gauss/wall   -5.0   10.75   1.20   25.00
pair_coeff   574  2583   gauss/wall   -5.0   11.91   1.20   25.00
pair_coeff   574  2584   gauss/wall   -5.0   10.00   1.20   25.00
pair_coeff   574  2623   gauss/wall   -5.0   13.71   1.20   25.00
pair_coeff   575  2536   gauss/wall   -5.0   11.82   1.20   25.00
pair_coeff   575  2562   gauss/wall   -5.0   10.47   1.20   25.00
pair_coeff   575  2573   gauss/wall   -5.0   11.22   1.20   25.00
pair_coeff   575  2583   gauss/wall   -5.0   12.74   1.20   25.00
pair_coeff   576  2574   gauss/wall   -5.0   11.87   1.20   25.00
pair_coeff   577  2575   gauss/wall   -5.0   14.23   1.20   25.00
pair_coeff   583  2516   gauss/wall   -5.0   11.45   1.20   25.00
pair_coeff   584  2507   gauss/wall   -5.0   13.55   1.20   25.00
pair_coeff   584  2515   gauss/wall   -5.0   10.47   1.20   25.00
pair_coeff   584  2576   gauss/wall   -5.0   11.35   1.20   25.00
pair_coeff   584  2577   gauss/wall   -5.0   11.82   1.20   25.00
pair_coeff   584  2584   gauss/wall   -5.0   12.40   1.20   25.00
pair_coeff   585  2516   gauss/wall   -5.0   12.06   1.20   25.00
pair_coeff   585  2517   gauss/wall   -5.0   12.42   1.20   25.00
pair_coeff   585  2576   gauss/wall   -5.0   13.34   1.20   25.00
pair_coeff   585  2577   gauss/wall   -5.0   12.28   1.20   25.00
pair_coeff   585  2590   gauss/wall   -5.0   11.84   1.20   25.00
pair_coeff   585  2599   gauss/wall   -5.0   14.80   1.20   25.00
pair_coeff   585  2609   gauss/wall   -5.0   10.11   1.20   25.00
pair_coeff   586  2574   gauss/wall   -5.0   13.21   1.20   25.00
pair_coeff   586  2583   gauss/wall   -5.0   13.32   1.20   25.00
pair_coeff   586  2586   gauss/wall   -5.0   13.33   1.20   25.00
pair_coeff   586  2599   gauss/wall   -5.0   10.75   1.20   25.00
pair_coeff   586  2609   gauss/wall   -5.0   13.25   1.20   25.00
pair_coeff   592  2599   gauss/wall   -5.0   13.53   1.20   25.00
pair_coeff   594  2691   gauss/wall   -5.0   12.40   1.20   25.00
pair_coeff   595  2506   gauss/wall   -5.0    9.98   1.20   25.00
pair_coeff   595  2599   gauss/wall   -5.0   13.09   1.20   25.00
pair_coeff   595  2691   gauss/wall   -5.0   12.85   1.20   25.00
pair_coeff   596  2516   gauss/wall   -5.0   12.33   1.20   25.00
pair_coeff   596  2586   gauss/wall   -5.0   13.51   1.20   25.00
pair_coeff   596  2599   gauss/wall   -5.0   13.32   1.20   25.00
pair_coeff   596  2608   gauss/wall   -5.0   13.54   1.20   25.00
pair_coeff   596  2609   gauss/wall   -5.0   11.40   1.20   25.00
pair_coeff   596  2622   gauss/wall   -5.0   12.11   1.20   25.00
pair_coeff   597  2583   gauss/wall   -5.0   13.67   1.20   25.00
pair_coeff   597  2584   gauss/wall   -5.0   10.61   1.20   25.00
pair_coeff   597  2596   gauss/wall   -5.0   10.33   1.20   25.00
pair_coeff   597  2598   gauss/wall   -5.0   12.53   1.20   25.00
pair_coeff   597  2610   gauss/wall   -5.0   12.90   1.20   25.00
pair_coeff   598  2589   gauss/wall   -5.0   12.88   1.20   25.00
pair_coeff   598  2590   gauss/wall   -5.0   11.08   1.20   25.00
pair_coeff   598  2591   gauss/wall   -5.0   11.10   1.20   25.00
pair_coeff   598  2592   gauss/wall   -5.0   13.03   1.20   25.00
pair_coeff   598  2597   gauss/wall   -5.0   10.22   1.20   25.00
pair_coeff   598  2607   gauss/wall   -5.0   13.19   1.20   25.00
pair_coeff   598  2609   gauss/wall   -5.0   12.17   1.20   25.00
pair_coeff   598  2610   gauss/wall   -5.0   12.89   1.20   25.00
pair_coeff   599  2583   gauss/wall   -5.0   11.47   1.20   25.00
pair_coeff   599  2585   gauss/wall   -5.0    9.79   1.20   25.00
pair_coeff   599  2591   gauss/wall   -5.0   14.15   1.20   25.00
pair_coeff   599  2596   gauss/wall   -5.0   14.08   1.20   25.00
pair_coeff   599  2599   gauss/wall   -5.0   12.74   1.20   25.00
pair_coeff   599  2600   gauss/wall   -5.0   11.48   1.20   25.00
pair_coeff   600  2574   gauss/wall   -5.0   11.94   1.20   25.00
pair_coeff   600  2575   gauss/wall   -5.0   10.97   1.20   25.00
pair_coeff   600  2576   gauss/wall   -5.0   13.79   1.20   25.00
pair_coeff   600  2577   gauss/wall   -5.0   12.03   1.20   25.00
pair_coeff   600  2583   gauss/wall   -5.0   11.62   1.20   25.00
pair_coeff   600  2586   gauss/wall   -5.0   11.85   1.20   25.00
pair_coeff   600  2590   gauss/wall   -5.0   12.02   1.20   25.00
pair_coeff   600  2598   gauss/wall   -5.0   13.02   1.20   25.00
pair_coeff   601  2578   gauss/wall   -5.0   12.31   1.20   25.00
pair_coeff   601  2584   gauss/wall   -5.0    9.91   1.20   25.00
pair_coeff   601  2586   gauss/wall   -5.0   13.62   1.20   25.00
pair_coeff   602  2575   gauss/wall   -5.0   12.63   1.20   25.00
pair_coeff   602  2576   gauss/wall   -5.0   11.12   1.20   25.00
pair_coeff   602  2584   gauss/wall   -5.0   11.83   1.20   25.00
pair_coeff   602  2586   gauss/wall   -5.0   11.35   1.20   25.00
pair_coeff   602  2597   gauss/wall   -5.0   14.85   1.20   25.00
pair_coeff   602  2598   gauss/wall   -5.0   11.88   1.20   25.00
pair_coeff   602  2599   gauss/wall   -5.0   13.60   1.20   25.00
pair_coeff   603  2577   gauss/wall   -5.0   12.68   1.20   25.00
pair_coeff   603  2597   gauss/wall   -5.0   14.66   1.20   25.00
pair_coeff   604  2590   gauss/wall   -5.0   13.65   1.20   25.00
pair_coeff   604  2591   gauss/wall   -5.0   13.33   1.20   25.00
pair_coeff   604  2609   gauss/wall   -5.0   12.42   1.20   25.00
pair_coeff   605  2591   gauss/wall   -5.0   12.80   1.20   25.00
pair_coeff   605  2596   gauss/wall   -5.0   11.22   1.20   25.00
pair_coeff   605  2598   gauss/wall   -5.0   12.15   1.20   25.00