pair_coeff   312  2822   gauss/wall   -6.5   14.79   1.20   25.00
pair_coeff   315  2858   gauss/wall   -6.5   13.80   1.20   25.00
pair_coeff   316  2857   gauss/wall   -6.5   11.87   1.20   25.00
pair_coeff   316  2858   gauss/wall   -6.5   10.39   1.20   25.00
pair_coeff   317  2819   gauss/wall   -6.5   13.08   1.20   25.00
pair_coeff   317  2857   gauss/wall   -6.5   10.82   1.20   25.00
pair_coeff   317  2859   gauss/wall   -6.5   13.66   1.20   25.00
pair_coeff   318  2819   gauss/wall   -6.5    7.52   1.20   25.00
pair_coeff   318  2820   gauss/wall   -6.5   13.85   1.20   25.00
pair_coeff   318  2857   gauss/wall   -6.5    9.21   1.20   25.00
pair_coeff   319  2820   gauss/wall   -6.5   14.34   1.20   25.00
pair_coeff   319  2857   gauss/wall   -6.5   13.34   1.20   25.00
pair_coeff   319  2858   gauss/wall   -6.5   10.02   1.20   25.00
pair_coeff   320  2819   gauss/wall   -6.5   13.09   1.20   25.00
pair_coeff   320  2822   gauss/wall   -6.5   14.88   1.20   25.00
pair_coeff   321  2819   gauss/wall   -6.5   10.99   1.20   25.00
pair_coeff   321  2820   gauss/wall   -6.5    8.60   1.20   25.00
pair_coeff   321  2821   gauss/wall   -6.5   10.93   1.20   25.00
pair_coeff   321  2822   gauss/wall   -6.5   10.45   1.20   25.00
pair_coeff   322  2819   gauss/wall   -6.5    7.53   1.20   25.00
pair_coeff   322  2820   gauss/wall   -6.5    8.38   1.20   25.00
pair_coeff   322  2821   gauss/wall   -6.5    9.00   1.20   25.00
pair_coeff   322  2857   gauss/wall   -6.5    8.06   1.20   25.00
pair_coeff   323  2819   gauss/wall   -6.5   14.76   1.20   25.00
pair_coeff   323  2822   gauss/wall   -6.5   14.46   1.20   25.00
pair_coeff   323  2823   gauss/wall   -6.5   12.40   1.20   25.00
pair_coeff   323  2856   gauss/wall   -6.5   11.06   1.20   25.00
pair_coeff   324  2820   gauss/wall   -6.5   13.51   1.20   25.00
pair_coeff   324  2856   gauss/wall   -6.5    7.73   1.20   25.00
pair_coeff   324  2857   gauss/wall   -6.5    9.15   1.20   25.00
pair_coeff   325  2819   gauss/wall   -6.5    9.04   1.20   25.00
pair_coeff   325  2821   gauss/wall   -6.5   12.67   1.20   25.00
pair_coeff   326  2819   gauss/wall   -6.5   10.60   1.20   25.00
pair_coeff   326  2820   gauss/wall   -6.5   11.76   1.20   25.00
pair_coeff   330  2819   gauss/wall   -6.5   10.58   1.20   25.00
pair_coeff   332  2819   gauss/wall   -6.5   12.97   1.20   25.00
pair_coeff   332  2856   gauss/wall   -6.5   14.39   1.20   25.00
pair_coeff   333  2820   gauss/wall   -6.5   14.58   1.20   25.00
pair_coeff   333  2855   gauss/wall   -6.5   11.15   1.20   25.00
pair_coeff   333  2856   gauss/wall   -6.5   11.86   1.20   25.00
pair_coeff   334  2824   gauss/wall   -6.5   14.52   1.20   25.00
pair_coeff   334  2825   gauss/wall   -6.5    9.72   1.20   25.00
pair_coeff   334  2826   gauss/wall   -6.5    8.23   1.20   25.00
pair_coeff   335  2825   gauss/wall   -6.5    7.88   1.20   25.00
pair_coeff   336  2825   gauss/wall   -6.5   12.09   1.20   25.00
pair_coeff   337  2826   gauss/wall   -6.5    9.99   1.20   25.00
pair_coeff   338  2826   gauss/wall   -6.5   13.75   1.20   25.00
pair_coeff   340  2826   gauss/wall   -6.5   13.99   1.20   25.00
pair_coeff   340  2854   gauss/wall   -6.5   10.16   1.20   25.00
pair_coeff   340  2855   gauss/wall   -6.5   12.30   1.20   25.00
pair_coeff   341  2821   gauss/wall   -6.5   13.81   1.20   25.00
pair_coeff   341  2830   gauss/wall   -6.5   14.44   1.20   25.00
pair_coeff   341  2840   gauss/wall   -6.5   14.64   1.20   25.00
pair_coeff   341  2841   gauss/wall   -6.5   13.85   1.20   25.00
pair_coeff   341  2855   gauss/wall   -6.5    7.95   1.20   25.00
pair_coeff   342  2830   gauss/wall   -6.5   14.13   1.20   25.00
pair_coeff   342  2839   gauss/wall   -6.5   14.61   1.20   25.00
pair_coeff   342  2840   gauss/wall   -6.5   10.20   1.20   25.00
pair_coeff   342  2841   gauss/wall   -6.5    7.71   1.20   25.00
pair_coeff   342  2844   gauss/wall   -6.5   14.06   1.20   25.00
pair_coeff   342  2845   gauss/wall   -6.5   14.53   1.20   25.00
pair_coeff   342  2854   gauss/wall   -6.5    7.61   1.20   25.00
pair_coeff   342  2855   gauss/wall   -6.5   13.72   1.20   25.00
pair_coeff   343  2828   gauss/wall   -6.5   13.47   1.20   25.00
pair_coeff   343  2830   gauss/wall   -6.5    8.71   1.20   25.00
pair_coeff   343  2831   gauss/wall   -6.5   14.61   1.20   25.00
pair_coeff   343  2832   gauss/wall   -6.5   14.06   1.20   25.00
pair_coeff   343  2840   gauss/wall   -6.5   12.81   1.20   25.00
pair_coeff   343  2841   gauss/wall   -6.5    7.83   1.20   25.00
pair_coeff   343  2842   gauss/wall   -6.5   11.02   1.20   25.00
pair_coeff   343  2844   gauss/wall   -6.5   10.44   1.20   25.00
pair_coeff   343  2845   gauss/wall   -6.5   13.76   1.20   25.00
pair_coeff   343  2853   gauss/wall   -6.5   11.80   1.20   25.00
pair_coeff   344  2828   gauss/wall   -6.5   10.12   1.20   25.00
pair_coeff   344  2829   gauss/wall   -6.5   12.89   1.20   25.00
pair_coeff   344  2831   gauss/wall   -6.5    9.24   1.20   25.00
pair_coeff   344  2832   gauss/wall   -6.5   10.78   1.20   25.00
pair_coeff   344  2842   gauss/wall   -6.5   13.11   1.20   25.00
pair_coeff   344  2852   gauss/wall   -6.5   12.59   1.20   25.00
pair_coeff   345  2830   gauss/wall   -6.5   13.83   1.20   25.00
pair_coeff   345  2854   gauss/wall   -6.5   11.97   1.20   25.00
pair_coeff   346  2828   gauss/wall   -6.5   14.74   1.20   25.00
pair_coeff   346  2830   gauss/wall   -6.5   12.23   1.20   25.00
pair_coeff   346  2853   gauss/wall   -6.5   11.41   1.20   25.00
pair_coeff   346  2854   gauss/wall   -6.5    9.93   1.20   25.00
pair_coeff   347  2855   gauss/wall   -6.5   14.34   1.20   25.00
pair_coeff   349  2853   gauss/wall   -6.5   13.01   1.20   25.00
pair_coeff   350  2853   gauss/wall   -6.5   12.50   1.20   25.00
pair_coeff   356  2825   gauss/wall   -6.5   14.63   1.20   25.00
pair_coeff   356  2831   gauss/wall   -6.5   13.97   1.20   25.00
pair_coeff   357  2825   gauss/wall   -6.5   12.33   1.20   25.00
pair_coeff   357  2827   gauss/wall   -6.5   10.88   1.20   25.00
pair_coeff   357  2828   gauss/wall   -6.5    9.44   1.20   25.00
pair_coeff   357  2829   gauss/wall   -6.5    8.51   1.20   25.00
pair_coeff   357  2830   gauss/wall   -6.5   10.11   1.20   25.00
pair_coeff   357  2831   gauss/wall   -6.5    8.86   1.20   25.00
pair_coeff   357  2832   gauss/wall   -6.5   12.65   1.20   25.00
pair_coeff   358  2825   gauss/wall   -6.5    9.92   1.20   25.00
pair_coeff   358  2827   gauss/wall   -6.5   11.87   1.20   25.00
pair_coeff   358  2828   gauss/wall   -6.5    8.90   1.20   25.00
pair_coeff   358  2829   gauss/wall   -6.5   13.25   1.20   25.00
pair_coeff   358  2830   gauss/wall   -6.5    9.48   1.20   25.00
pair_coeff   358  2831   gauss/wall   -6.5   13.45   1.20   25.00
pair_coeff   358  2853   gauss/wall   -6.5   14.02   1.20   25.00
pair_coeff   358  2854   gauss/wall   -6.5   11.78   1.20   25.00
pair_coeff   359  2825   gauss/wall   -6.5   10.62   1.20   25.00
pair_coeff   360  2819   gauss/wall   -6.5   14.95   1.20   25.00
pair_coeff   360  2821   gauss/wall   -6.5   12.41   1.20   25.00
pair_coeff   360  2823   gauss/wall   -6.5   13.61   1.20   25.00
pair_coeff   360  2824   gauss/wall   -6.5    9.81   1.20   25.00
pair_coeff   360  2825   gauss/wall   -6.5    8.01   1.20   25.00
pair_coeff   360  2827   gauss/wall   -6.5   12.96   1.20   25.00
pair_coeff   361  2819   gauss/wall   -6.5   10.17   1.20   25.00
pair_coeff   361  2821   gauss/wall   -6.5   13.50   1.20   25.00
pair_coeff   361  2822   gauss/wall   -6.5   10.14   1.20   25.00
pair_coeff   361  2823   gauss/wall   -6.5   11.52   1.20   25.00
pair_coeff   361  2826   gauss/wall   -6.5   10.50   1.20   25.00
pair_coeff   361  2827   gauss/wall   -6.5    7.73   1.20   25.00
pair_coeff   361  2828   gauss/wall   -6.5   10.94   1.20   25.00
pair_coeff   361  2829   gauss/wall   -6.5   14.59   1.20   25.00
pair_coeff   362  2819   gauss/wall   -6.5   12.66   1.20   25.00
pair_coeff   362  2820   gauss/wall   -6.5   14.01   1.20   25.00
pair_coeff   362  2822   gauss/wall   -6.5   11.86   1.20   25.00
pair_coeff   362  2824   gauss/wall   -6.5   12.03   1.20   25.00
pair_coeff   362  2827   gauss/wall   -6.5    7.67   1.20   25.00
pair_coeff   362  2829   gauss/wall   -6.5   12.79   1.20   25.00
pair_coeff   362  2830   gauss/wall   -6.5   11.84   1.20   25.00
pair_coeff   362  2854   gauss/wall   -6.5   10.99   1.20   25.00
pair_coeff   362  2855   gauss/wall   -6.5   11.30   1.20   25.00
pair_coeff   363  2819   gauss/wall   -6.5   10.81   1.20   25.00
pair_coeff   363  2820   gauss/wall   -6.5    7.90   1.20   25.00
pair_coeff   363  2822   gauss/wall   -6.5    7.52   1.20   25.00
pair_coeff   363  2823   gauss/wall   -6.5   14.95   1.20   25.00
pair_coeff   363  2825   gauss/wall   -6.5   11.45   1.20   25.00
pair_coeff   363  2826   gauss/wall   -6.5    9.23   1.20   25.00
pair_coeff   363  2855   gauss/wall   -6.5   10.19   1.20   25.00
pair_coeff   363  2856   gauss/wall   -6.5   14.77   1.20   25.00
pair_coeff   364  2819   gauss/wall   -6.5   14.11   1.20   25.00
pair_coeff   364  2821   gauss/wall   -6.5   11.86   1.20   25.00
pair_coeff   364  2822   gauss/wall   -6.5   11.61   1.20   25.00
pair_coeff   364  2825   gauss/wall   -6.5   10.33   1.20   25.00
pair_coeff   365  2821   gauss/wall   -6.5   13.10   1.20   25.00
pair_coeff   367  2820   gauss/wall   -6.5   13.94   1.20   25.00
pair_coeff   367  2821   gauss/wall   -6.5   13.48   1.20   25.00
pair_coeff   368  2819   gauss/wall   -6.5   14.26   1.20   25.00
pair_coeff   368  2820   gauss/wall   -6.5    8.94   1.20   25.00
pair_coeff   368  2822   gauss/wall   -6.5   12.97   1.20   25.00
pair_coeff   368  2823   gauss/wall   -6.5   12.29   1.20   25.00
pair_coeff   369  2819   gauss/wall   -6.5    8.80   1.20   25.00
pair_coeff   369  2820   gauss/wall   -6.5   12.84   1.20   25.00
pair_coeff   369  2822   gauss/wall   -6.5    8.95   1.20   25.00
pair_coeff   369  2824   gauss/wall   -6.5   13.93   1.20   25.00
pair_coeff   370  2819   gauss/wall   -6.5    7.77   1.20   25.00
pair_coeff   370  2820   gauss/wall   -6.5   11.97   1.20   25.00
pair_coeff   370  2821   gauss/wall   -6.5   14.69   1.20   25.00
pair_coeff   370  2823   gauss/wall   -6.5   10.42   1.20   25.00
pair_coeff   370  2826   gauss/wall   -6.5   13.09   1.20   25.00
pair_coeff   371  2819   gauss/wall   -6.5   13.22   1.20   25.00
pair_coeff   371  2820   gauss/wall   -6.5    8.62   1.20   25.00
pair_coeff   371  2821   gauss/wall   -6.5   12.92   1.20   25.00
pair_coeff   371  2822   gauss/wall   -6.5   11.84   1.20   25.00
pair_coeff   371  2826   gauss/wall   -6.5   13.59   1.20   25.00
pair_coeff   372  2819   gauss/wall   -6.5   14.53   1.20   25.00
pair_coeff   372  2820   gauss/wall   -6.5    9.55   1.20   25.00
pair_coeff   372  2822   gauss/wall   -6.5   11.58   1.20   25.00
pair_coeff   372  2856   gauss/wall   -6.5   12.16   1.20   25.00
pair_coeff   373  2819   gauss/wall   -6.5    8.07   1.20   25.00
pair_coeff   373  2821   gauss/wall   -6.5   13.41   1.20   25.00
pair_coeff   373  2822   gauss/wall   -6.5   14.82   1.20   25.00
pair_coeff   374  2857   gauss/wall   -6.5   14.66   1.20   25.00
pair_coeff   375  2857   gauss/wall   -6.5   10.23   1.20   25.00
pair_coeff   376  2819   gauss/wall   -6.5   12.83   1.20   25.00
pair_coeff   376  2820   gauss/wall   -6.5   14.35   1.20   25.00
pair_coeff   376  2857   gauss/wall   -6.5    9.33   1.20   25.00
pair_coeff   377  2819   gauss/wall   -6.5    8.43   1.20   25.00
pair_coeff   377  2820   gauss/wall   -6.5   12.28   1.20   25.00
pair_coeff   378  2819   gauss/wall   -6.5   11.96   1.20   25.00
pair_coeff   380  2819   gauss/wall   -6.5   10.57   1.20   25.00
pair_coeff   380  2820   gauss/wall   -6.5   12.87   1.20   25.00
pair_coeff   380  2821   gauss/wall   -6.5   13.28   1.20   25.00
pair_coeff   386  2858   gauss/wall   -6.5   13.94   1.20   25.00
pair_coeff   387  2858   gauss/wall   -6.5   13.44   1.20   25.00
pair_coeff   388  2819   gauss/wall   -6.5   13.46   1.20   25.00
pair_coeff   388  2858   gauss/wall   -6.5   10.90   1.20   25.00
pair_coeff   389  2819   gauss/wall   -6.5   14.31   1.20   25.00
pair_coeff   435  2859   gauss/wall   -6.5   14.57   1.20   25.00
pair_coeff   525  2831   gauss/wall   -6.5   10.24   1.20   25.00
pair_coeff   525  2832   gauss/wall   -6.5   13.15   1.20   25.00
pair_coeff   534  2823   gauss/wall   -6.5   12.09   1.20   25.00
pair_coeff   535  2824   gauss/wall   -6.5   12.22   1.20   25.00
pair_coeff   536  2824   gauss/wall   -6.5   10.55   1.20   25.00
pair_coeff   537  2822   gauss/wall   -6.5   12.00   1.20   25.00
pair_coeff   538  2823   gauss/wall   -6.5   12.44   1.20   25.00
pair_coeff   558  2833   gauss/wall   -6.5   13.78   1.20   25.00
pair_coeff   599  2839   gauss/wall   -6.5   12.55   1.20   25.00
pair_coeff   599  2840   gauss/wall   -6.5   12.83   1.20   25.00
pair_coeff   600  2840   gauss/wall   -6.5    9.00   1.20   25.00
pair_coeff   600  2841   gauss/wall   -6.5   13.43   1.20   25.00
pair_coeff   601  2838   gauss/wall   -6.5   10.98   1.20   25.00
pair_coeff   601  2840   gauss/wall   -6.5   12.34   1.20   25.00
pair_coeff   601  2842   gauss/wall   -6.5    9.41   1.20   25.00
pair_coeff   601  2843   gauss/wall   -6.5   12.92   1.20   25.00
pair_coeff   601  2844   gauss/wall   -6.5   13.11   1.20   25.00
pair_coeff   602  2838   gauss/wall   -6.5   12.17   1.20   25.00
pair_coeff   602  2839   gauss/wall   -6.5   10.72   1.20   25.00
pair_coeff   651  2854   gauss/wall   -6.5   12.10   1.20   25.00
pair_coeff   652  2831   gauss/wall   -6.5   14.49   1.20   25.00
pair_coeff   652  2853   gauss/wall   -6.5   14.02   1.20   25.00
pair_coeff   652  2854   gauss/wall   -6.5   11.37   1.20   25.00
pair_coeff   653  2831   gauss/wall   -6.5   13.60   1.20   25.00
pair_coeff   653  2841   gauss/wall   -6.5   13.14   1.20   25.00
pair_coeff   653  2845   gauss/wall   -6.5   12.20   1.20   25.00
pair_coeff   653  2853   gauss/wall   -6.5   11.15   1.20   25.00
pair_coeff   654  2840   gauss/wall   -6.5   12.59   1.20   25.00
pair_coeff   654  2845   gauss/wall   -6.5    8.50   1.20   25.00
pair_coeff   654  2846   gauss/wall   -6.5   13.15   1.20   25.00
pair_coeff   654  2853   gauss/wall   -6.5   10.44   1.20   25.00
pair_coeff   655  2836   gauss/wall   -6.5   13.01   1.20   25.00
pair_coeff   655  2837   gauss/wall   -6.5   13.30   1.20   25.00
pair_coeff   655  2839   gauss/wall   -6.5   12.58   1.20   25.00
pair_coeff   655  2842   gauss/wall   -6.5   13.34   1.20   25.00
pair_coeff   655  2844   gauss/wall   -6.5    8.64   1.20   25.00
pair_coeff   656  2839   gauss/wall   -6.5   11.26   1.20   25.00
pair_coeff   656  2841   gauss/wall   -6.5    9.18   1.20   25.00
pair_coeff   656  2844   gauss/wall   -6.5   14.23   1.20   25.00
pair_coeff   656  2846   gauss/wall   -6.5   12.23   1.20   25.00
pair_coeff   657  2840   gauss/wall   -6.5   10.95   1.20   25.00
pair_coeff   657  2841   gauss/wall   -6.5   12.85   1.20   25.00
pair_coeff   662  2830   gauss/wall   -6.5    9.49   1.20   25.00
pair_coeff   662  2831   gauss/wall   -6.5   10.37   1.20   25.00
pair_coeff   662  2853   gauss/wall   -6.5   12.75   1.20   25.00
pair_coeff   662  2854   gauss/wall   -6.5   10.42   1.20   25.00
pair_coeff   663  2830   gauss/wall   -6.5    9.83   1.20   25.00
pair_coeff   663  2833   gauss/wall   -6.5   11.87   1.20   25.00
pair_coeff   663  2854   gauss/wall   -6.5   13.73   1.20   25.00
pair_coeff   664  2840   gauss/wall   -6.5   13.72   1.20   25.00
pair_coeff   664  2844   gauss/wall   -6.5   13.45   1.20   25.00
pair_coeff   664  2845   gauss/wall   -6.5    9.97   1.20   25.00
pair_coeff   664  2853   gauss/wall   -6.5    8.76   1.20   25.00
pair_coeff   665  2840   gauss/wall   -6.5   13.33   1.20   25.00
pair_coeff   665  2841   gauss/wall   -6.5   10.53   1.20   25.00
pair_coeff   665  2842   gauss/wall   -6.5   13.48   1.20   25.00
pair_coeff   671  2830   gauss/wall   -6.5   14.02   1.20   25.00
pair_coeff   675  2842   gauss/wall   -6.5   10.31   1.20   25.00
pair_coeff   675  2843   gauss/wall   -6.5   12.15   1.20   25.00
pair_coeff   675  2851   gauss/wall   -6.5   13.09   1.20   25.00
pair_coeff   676  2852   gauss/wall   -6.5   13.34   1.20   25.00
pair_coeff   677  2851   gauss/wall   -6.5   12.64   1.20   25.00
pair_coeff   677  2852   gauss/wall   -6.5   11.45   1.20   25.00
pair_coeff   678  2852   gauss/wall   -6.5   12.46   1.20   25.00
pair_coeff   686  2838   gauss/wall   -6.5   13.71   1.20   25.00
pair_coeff   731  2819   gauss/wall   -6.5   12.24   1.20   25.00
pair_coeff   732  2820   gauss/wall   -6.5   11.16   1.20   25.00
pair_coeff   745  2819   gauss/wall   -6.5   13.62   1.20   25.00
pair_coeff   747  2820   gauss/wall   -6.5   11.25   1.20   25.00
pair_coeff   747  2821   gauss/wall   -6.5   12.18   1.20   25.00
pair_coeff   748  2821   gauss/wall   -6.5   11.90   1.20   25.00
pair_coeff   757  2820   gauss/wall   -6.5   12.56   1.20   25.00
pair_coeff   758  2821   gauss/wall   -6.5    9.43   1.20   25.00
pair_coeff   758  2822   gauss/wall   -6.5   12.21   1.20   25.00
pair_coeff   769  2821   gauss/wall   -6.5   10.13   1.20   25.00
pair_coeff   769  2822   gauss/wall   -6.5   12.06   1.20   25.00
pair_coeff   770  2822   gauss/wall   -6.5   11.26   1.20   25.00
pair_coeff   770  2823   gauss/wall   -6.5   11.08   1.20   25.00
pair_coeff   771  2823   gauss/wall   -6.5   12.60   1.20   25.00
pair_coeff   771  2825   gauss/wall   -6.5   10.50   1.20   25.00
pair_coeff   771  2826   gauss/wall   -6.5   13.36   1.20   25.00
pair_coeff   771  2856   gauss/wall   -6.5   10.38   1.20   25.00
pair_coeff   771  2857   gauss/wall   -6.5   12.72   1.20   25.00
pair_coeff   772  2826   gauss/wall   -6.5    8.93   1.20   25.00
pair_coeff   772  2856   gauss/wall   -6.5   11.07   1.20   25.00
pair_coeff   773  2825   gauss/wall   -6.5   12.89   1.20   25.00
pair_coeff   779  2822   gauss/wall   -6.5   11.46   1.20   25.00
pair_coeff   779  2823   gauss/wall   -6.5   12.99   1.20   25.00
pair_coeff   779  2824   gauss/wall   -6.5   11.63   1.20   25.00
pair_coeff   779  2825   gauss/wall   -6.5   13.72   1.20   25.00
pair_coeff   780  2822   gauss/wall   -6.5   13.34   1.20   25.00
pair_coeff   780  2823   gauss/wall   -6.5    8.98   1.20   25.00
pair_coeff   780  2825   gauss/wall   -6.5    8.84   1.20   25.00
pair_coeff   781  2823   gauss/wall   -6.5   12.64   1.20   25.00
pair_coeff   782  2824   gauss/wall   -6.5   10.82   1.20   25.00
pair_coeff   782  2856   gauss/wall   -6.5   12.77   1.20   25.00
pair_coeff   783  2824   gauss/wall   -6.5   13.99   1.20   25.00
pair_coeff   784  2825   gauss/wall   -6.5   11.01   1.20   25.00
pair_coeff   784  2856   gauss/wall   -6.5   13.64   1.20   25.00
pair_coeff   786  2825   gauss/wall   -6.5   12.65   1.20   25.00
pair_coeff   786  2856   gauss/wall   -6.5   10.81   1.20   25.00
pair_coeff   787  2825   gauss/wall   -6.5   12.19   1.20   25.00
pair_coeff   787  2856   gauss/wall   -6.5   13.87   1.20   25.00
pair_coeff   818  2819   gauss/wall   -6.5   12.86   1.20   25.00
pair_coeff   819  2819   gauss/wall   -6.5   11.43   1.20   25.00
pair_coeff   824  2819   gauss/wall   -6.5   12.90   1.20   25.00
pair_coeff  2548  2838   gauss/wall   -6.5   12.65   1.20   25.00
pair_coeff  2548  2843   gauss/wall   -6.5   14.24   1.20   25.00
pair_coeff  2548  2849   gauss/wall   -6.5   14.13   1.20   25.00
pair_coeff  2561  2837   gauss/wall   -6.5    9.81   1.20   25.00
pair_coeff  2561  2847   gauss/wall   -6.5   12.33   1.20   25.00
pair_coeff  2561  2849   gauss/wall   -6.5   10.72   1.20   25.00
pair_coeff  2561  2850   gauss/wall   -6.5   10.73   1.20   25.00
pair_coeff  2562  2836   gauss/wall   -6.5   12.57   1.20   25.00
pair_coeff  2562  2843   gauss/wall   -6.5   14.70   1.20   25.00
pair_coeff  2562  2844   gauss/wall   -6.5   11.66   1.20   25.00
pair_coeff  2562  2846   gauss/wall   -6.5   10.09   1.20   25.00
pair_coeff  2562  2847   gauss/wall   -6.5    8.12   1.20   25.00
pair_coeff  2562  2849   gauss/wall   -6.5    8.51   1.20   25.00
pair_coeff  2563  2837   gauss/wall   -6.5   10.98   1.20   25.00
pair_coeff  2563  2846   gauss/wall   -6.5    8.67   1.20   25.00
pair_coeff  2563  2849   gauss/wall   -6.5    9.57   1.20   25.00
pair_coeff  2563  2850   gauss/wall   -6.5   13.12   1.20   25.00
pair_coeff  2564  2837   gauss/wall   -6.5   11.78   1.20   25.00
pair_coeff  2564  2846   gauss/wall   -6.5   13.36   1.20   25.00
pair_coeff  2564  2849   gauss/wall   -6.5    9.57   1.20   25.00
pair_coeff  2564  2850   gauss/wall   -6.5   13.89   1.20   25.00
pair_coeff  2572  2837   gauss/wall   -6.5   13.71   1.20   25.00
pair_coeff  2572  2838   gauss/wall   -6.5   14.97   1.20   25.00
pair_coeff  2572  2847   gauss/wall   -6.5    9.72   1.20   25.00
pair_coeff  2572  2848   gauss/wall   -6.5    9.04   1.20   25.00
pair_coeff  2573  2838   gauss/wall   -6.5    9.20   1.20   25.00
pair_coeff  2573  2839   gauss/wall   -6.5    9.38   1.20   25.00
pair_coeff  2573  2840   gauss/wall   -6.5   12.02   1.20   25.00
pair_coeff  2573  2842   gauss/wall   -6.5   13.94   1.20   25.00
pair_coeff  2573  2843   gauss/wall   -6.5   11.55   1.20   25.00
pair_coeff  2573  2844   gauss/wall   -6.5   12.67   1.20   25.00
pair_coeff  2573  2846   gauss/wall   -6.5   12.99   1.20   25.00
pair_coeff  2573  2847   gauss/wall   -6.5    7.72   1.20   25.00
pair_coeff  2573  2848   gauss/wall   -6.5    9.27   1.20   25.00
pair_coeff  2573  2850   gauss/wall   -6.5   13.54   1.20   25.00
pair_coeff  2574  2838   gauss/wall   -6.5    9.88   1.20   25.00
pair_coeff  2574  2841   gauss/wall   -6.5   10.68   1.20   25.00
pair_coeff  2574  2842   gauss/wall   -6.5    7.93   1.20   25.00
pair_coeff  2574  2843   gauss/wall   -6.5   11.06   1.20   25.00
pair_coeff  2574  2846   gauss/wall   -6.5   11.76   1.20   25.00
pair_coeff  2574  2847   gauss/wall   -6.5   12.06   1.20   25.00
pair_coeff  2574  2848   gauss/wall   -6.5   13.96   1.20   25.00
pair_coeff  2574  2849   gauss/wall   -6.5    9.66   1.20   25.00
pair_coeff  2574  2850   gauss/wall   -6.5   12.64   1.20   25.00
pair_coeff  2575  2837   gauss/wall   -6.5   10.78   1.20   25.00
pair_coeff  2575  2838   gauss/wall   -6.5   12.31   1.20   25.00
pair_coeff  2575  2839   gauss/wall   -6.5    7.98   1.20   25.00
pair_coeff  2575  2840   gauss/wall   -6.5   10.31   1.20   25.00
pair_coeff  2575  2841   gauss/wall   -6.5   10.68   1.20   25.00
pair_coeff  2575  2843   gauss/wall   -6.5   11.49   1.20   25.00
pair_coeff  2575  2850   gauss/wall   -6.5   14.45   1.20   25.00
pair_coeff  2575  2851   gauss/wall   -6.5   14.35   1.20   25.00
pair_coeff  2576  2837   gauss/wall   -6.5   11.54   1.20   25.00
pair_coeff  2576  2838   gauss/wall   -6.5    9.32   1.20   25.00
pair_coeff  2576  2839   gauss/wall   -6.5    9.02   1.20   25.00
pair_coeff  2576  2840   gauss/wall   -6.5   14.64   1.20   25.00
pair_coeff  2576  2844   gauss/wall   -6.5   11.09   1.20   25.00
pair_coeff  2577  2837   gauss/wall   -6.5   11.90   1.20   25.00
pair_coeff  2577  2840   gauss/wall   -6.5   13.29   1.20   25.00
pair_coeff  2577  2842   gauss/wall   -6.5    9.78   1.20   25.00
pair_coeff  2577  2843   gauss/wall   -6.5    8.01   1.20   25.00
pair_coeff  2577  2844   gauss/wall   -6.5   13.40   1.20   25.00
pair_coeff  2577  2849   gauss/wall   -6.5   13.46   1.20   25.00
pair_coeff  2578  2837   gauss/wall   -6.5   11.75   1.20   25.00
pair_coeff  2578  2839   gauss/wall   -6.5    8.42   1.20   25.00
pair_coeff  2578  2842   gauss/wall   -6.5   14.36   1.20   25.00
pair_coeff  2578  2843   gauss/wall   -6.5    8.52   1.20   25.00
pair_coeff  2578  2848   gauss/wall   -6.5   11.26   1.20   25.00
pair_coeff  2578  2849   gauss/wall   -6.5   10.20   1.20   25.00
pair_coeff  2579  2838   gauss/wall   -6.5   11.64   1.20   25.00
pair_coeff  2579  2839   gauss/wall   -6.5   14.72   1.20   25.00
pair_coeff  2579  2849   gauss/wall   -6.5   12.72   1.20   25.00
pair_coeff  2580  2848   gauss/wall   -6.5   13.01   1.20   25.00
pair_coeff  2581  2848   gauss/wall   -6.5   12.13   1.20   25.00
pair_coeff  2582  2840   gauss/wall   -6.5   14.30   1.20   25.00
pair_coeff  2582  2847   gauss/wall   -6.5    8.65   1.20   25.00
pair_coeff  2582  2849   gauss/wall   -6.5   10.21   1.20   25.00
pair_coeff  2583  2838   gauss/wall   -6.5   13.64   1.20   25.00
pair_coeff  2583  2839   gauss/wall   -6.5    8.91   1.20   25.00
pair_coeff  2583  2841   gauss/wall   -6.5   14.89   1.20   25.00
pair_coeff  2583  2846   gauss/wall   -6.5   14.85   1.20   25.00
pair_coeff  2583  2847   gauss/wall   -6.5   12.27   1.20   25.00
pair_coeff  2583  2848   gauss/wall   -6.5    8.73   1.20   25.00
pair_coeff  2583  2849   gauss/wall   -6.5   11.97   1.20   25.00
pair_coeff  2584  2838   gauss/wall   -6.5   13.53   1.20   25.00
pair_coeff  2584  2841   gauss/wall   -6.5   12.39   1.20   25.00
pair_coeff  2584  2844   gauss/wall   -6.5   14.87   1.20   25.00
pair_coeff  2584  2848   gauss/wall   -6.5   14.73   1.20   25.00
pair_coeff  2585  2838   gauss/wall   -6.5   12.88   1.20   25.00
pair_coeff  2585  2839   gauss/wall   -6.5    8.60   1.20   25.00
pair_coeff  2585  2840   gauss/wall   -6.5   12.38   1.20   25.00
pair_coeff  2585  2842   gauss/wall   -6.5   13.87   1.20   25.00
pair_coeff  2586  2838   gauss/wall   -6.5   10.58   1.20   25.00
pair_coeff  2586  2839   gauss/wall   -6.5   10.05   1.20   25.00
pair_coeff  2586  2840   gauss/wall   -6.5   14.77   1.20   25.00
pair_coeff  2586  2848   gauss/wall   -6.5   11.62   1.20   25.00
pair_coeff  2587  2848   gauss/wall   -6.5   10.10   1.20   25.00
pair_coeff  2590  2840   gauss/wall   -6.5   11.14   1.20   25.00
