pair_coeff   2868   3002   gauss/wall   -5.00   16.84   1.20   25.00
pair_coeff   2868   3003   gauss/wall   -5.00    7.65   1.20   25.00
pair_coeff   2868   3004   gauss/wall   -5.00   12.06   1.20   25.00
pair_coeff   2868   3005   gauss/wall   -5.00   13.22   1.20   25.00
pair_coeff   2868   3006   gauss/wall   -5.00   11.07   1.20   25.00
pair_coeff   2868   3007   gauss/wall   -5.00   16.90   1.20   25.00
pair_coeff   2868   3014   gauss/wall   -5.00   11.27   1.20   25.00
pair_coeff   2868   3015   gauss/wall   -5.00    7.81   1.20   25.00
pair_coeff   2868   3016   gauss/wall   -5.00   13.77   1.20   25.00
pair_coeff   2868   3019   gauss/wall   -5.00   17.13   1.20   25.00
pair_coeff   2868   3020   gauss/wall   -5.00   12.84   1.20   25.00
pair_coeff   2868   3021   gauss/wall   -5.00   16.35   1.20   25.00
pair_coeff   2869   3002   gauss/wall   -5.00   16.84   1.20   25.00
pair_coeff   2869   3003   gauss/wall   -5.00    7.65   1.20   25.00
pair_coeff   2869   3004   gauss/wall   -5.00   12.06   1.20   25.00
pair_coeff   2869   3005   gauss/wall   -5.00   13.22   1.20   25.00
pair_coeff   2869   3006   gauss/wall   -5.00   11.07   1.20   25.00
pair_coeff   2869   3007   gauss/wall   -5.00   16.90   1.20   25.00
pair_coeff   2869   3014   gauss/wall   -5.00   11.27   1.20   25.00
pair_coeff   2869   3015   gauss/wall   -5.00    7.81   1.20   25.00
pair_coeff   2869   3016   gauss/wall   -5.00   13.77   1.20   25.00
pair_coeff   2869   3019   gauss/wall   -5.00   17.13   1.20   25.00
pair_coeff   2869   3020   gauss/wall   -5.00   12.84   1.20   25.00
pair_coeff   2869   3021   gauss/wall   -5.00   16.35   1.20   25.00
pair_coeff   2870   3002   gauss/wall   -5.00   16.84   1.20   25.00
pair_coeff   2870   3003   gauss/wall   -5.00    7.65   1.20   25.00
pair_coeff   2870   3004   gauss/wall   -5.00   12.06   1.20   25.00
pair_coeff   2870   3005   gauss/wall   -5.00   13.22   1.20   25.00
pair_coeff   2870   3006   gauss/wall   -5.00   11.07   1.20   25.00
pair_coeff   2870   3007   gauss/wall   -5.00   16.90   1.20   25.00
pair_coeff   2870   3014   gauss/wall   -5.00   11.27   1.20   25.00
pair_coeff   2870   3015   gauss/wall   -5.00    7.81   1.20   25.00
pair_coeff   2870   3016   gauss/wall   -5.00   13.77   1.20   25.00
pair_coeff   2870   3019   gauss/wall   -5.00   17.13   1.20   25.00
pair_coeff   2870   3020   gauss/wall   -5.00   12.84   1.20   25.00
pair_coeff   2870   3021   gauss/wall   -5.00   16.35   1.20   25.00
pair_coeff   2871   3002   gauss/wall   -5.00   16.84   1.20   25.00
pair_coeff   2871   3003   gauss/wall   -5.00    7.65   1.20   25.00
pair_coeff   2871   3004   gauss/wall   -5.00   12.06   1.20   25.00
pair_coeff   2871   3005   gauss/wall   -5.00   13.22   1.20   25.00
pair_coeff   2871   3006   gauss/wall   -5.00   11.07   1.20   25.00
pair_coeff   2871   3007   gauss/wall   -5.00   16.90   1.20   25.00
pair_coeff   2871   3014   gauss/wall   -5.00   11.27   1.20   25.00
pair_coeff   2871   3015   gauss/wall   -5.00    7.81   1.20   25.00
pair_coeff   2871   3016   gauss/wall   -5.00   13.77   1.20   25.00
pair_coeff   2871   3019   gauss/wall   -5.00   17.13   1.20   25.00
pair_coeff   2871   3020   gauss/wall   -5.00   12.84   1.20   25.00
pair_coeff   2871   3021   gauss/wall   -5.00   16.35   1.20   25.00
pair_coeff   2872   3002   gauss/wall   -5.00   16.84   1.20   25.00
pair_coeff   2872   3003   gauss/wall   -5.00    7.65   1.20   25.00
pair_coeff   2872   3004   gauss/wall   -5.00   12.06   1.20   25.00
pair_coeff   2872   3005   gauss/wall   -5.00   13.22   1.20   25.00
pair_coeff   2872   3006   gauss/wall   -5.00   11.07   1.20   25.00
pair_coeff   2872   3007   gauss/wall   -5.00   16.90   1.20   25.00
pair_coeff   2872   3014   gauss/wall   -5.00   11.27   1.20   25.00
pair_coeff   2872   3015   gauss/wall   -5.00    7.81   1.20   25.00
pair_coeff   2872   3016   gauss/wall   -5.00   13.77   1.20   25.00
pair_coeff   2872   3019   gauss/wall   -5.00   17.13   1.20   25.00
pair_coeff   2872   3020   gauss/wall   -5.00   12.84   1.20   25.00
pair_coeff   2872   3021   gauss/wall   -5.00   16.35   1.20   25.00
pair_coeff   2874   3002   gauss/wall   -5.00   16.84   1.20   25.00
pair_coeff   2874   3003   gauss/wall   -5.00    7.65   1.20   25.00
pair_coeff   2874   3004   gauss/wall   -5.00   12.06   1.20   25.00
pair_coeff   2874   3005   gauss/wall   -5.00   13.22   1.20   25.00
pair_coeff   2874   3006   gauss/wall   -5.00   11.07   1.20   25.00
pair_coeff   2874   3007   gauss/wall   -5.00   16.90   1.20   25.00
pair_coeff   2874   3014   gauss/wall   -5.00   11.27   1.20   25.00
pair_coeff   2874   3015   gauss/wall   -5.00    7.81   1.20   25.00
pair_coeff   2874   3016   gauss/wall   -5.00   13.77   1.20   25.00
pair_coeff   2874   3019   gauss/wall   -5.00   17.13   1.20   25.00
pair_coeff   2874   3020   gauss/wall   -5.00   12.84   1.20   25.00
pair_coeff   2874   3021   gauss/wall   -5.00   16.35   1.20   25.00
pair_coeff   2875   3002   gauss/wall   -5.00   16.84   1.20   25.00
pair_coeff   2875   3003   gauss/wall   -5.00    7.65   1.20   25.00
pair_coeff   2875   3004   gauss/wall   -5.00   12.06   1.20   25.00
pair_coeff   2875   3005   gauss/wall   -5.00   13.22   1.20   25.00
pair_coeff   2875   3006   gauss/wall   -5.00   11.07   1.20   25.00
pair_coeff   2875   3007   gauss/wall   -5.00   16.90   1.20   25.00
pair_coeff   2875   3014   gauss/wall   -5.00   11.27   1.20   25.00
pair_coeff   2875   3015   gauss/wall   -5.00    7.81   1.20   25.00
pair_coeff   2875   3016   gauss/wall   -5.00   13.77   1.20   25.00
pair_coeff   2875   3019   gauss/wall   -5.00   17.13   1.20   25.00
pair_coeff   2875   3020   gauss/wall   -5.00   12.84   1.20   25.00
pair_coeff   2875   3021   gauss/wall   -5.00   16.35   1.20   25.00
pair_coeff   2877   3002   gauss/wall   -5.00   16.84   1.20   25.00
pair_coeff   2877   3003   gauss/wall   -5.00    7.65   1.20   25.00
pair_coeff   2877   3004   gauss/wall   -5.00   12.06   1.20   25.00
pair_coeff   2877   3005   gauss/wall   -5.00   13.22   1.20   25.00
pair_coeff   2877   3006   gauss/wall   -5.00   11.07   1.20   25.00
pair_coeff   2877   3007   gauss/wall   -5.00   16.90   1.20   25.00
pair_coeff   2877   3014   gauss/wall   -5.00   11.27   1.20   25.00
pair_coeff   2877   3015   gauss/wall   -5.00    7.81   1.20   25.00
pair_coeff   2877   3016   gauss/wall   -5.00   13.77   1.20   25.00
pair_coeff   2877   3019   gauss/wall   -5.00   17.13   1.20   25.00
pair_coeff   2877   3020   gauss/wall   -5.00   12.84   1.20   25.00
pair_coeff   2877   3021   gauss/wall   -5.00   16.35   1.20   25.00
pair_coeff   2879   3002   gauss/wall   -5.00   16.84   1.20   25.00
pair_coeff   2879   3003   gauss/wall   -5.00    7.65   1.20   25.00
pair_coeff   2879   3004   gauss/wall   -5.00   12.06   1.20   25.00
pair_coeff   2879   3005   gauss/wall   -5.00   13.22   1.20   25.00
pair_coeff   2879   3006   gauss/wall   -5.00   11.07   1.20   25.00
pair_coeff   2879   3007   gauss/wall   -5.00   16.90   1.20   25.00
pair_coeff   2879   3014   gauss/wall   -5.00   11.27   1.20   25.00
pair_coeff   2879   3015   gauss/wall   -5.00    7.81   1.20   25.00
pair_coeff   2879   3016   gauss/wall   -5.00   13.77   1.20   25.00
pair_coeff   2879   3019   gauss/wall   -5.00   17.13   1.20   25.00
pair_coeff   2879   3020   gauss/wall   -5.00   12.84   1.20   25.00
pair_coeff   2879   3021   gauss/wall   -5.00   16.35   1.20   25.00
pair_coeff   2882   3002   gauss/wall   -5.00   16.84   1.20   25.00
pair_coeff   2882   3003   gauss/wall   -5.00    7.65   1.20   25.00
pair_coeff   2882   3004   gauss/wall   -5.00   12.06   1.20   25.00
pair_coeff   2882   3005   gauss/wall   -5.00   13.22   1.20   25.00
pair_coeff   2882   3006   gauss/wall   -5.00   11.07   1.20   25.00
pair_coeff   2882   3007   gauss/wall   -5.00   16.90   1.20   25.00
pair_coeff   2882   3014   gauss/wall   -5.00   11.27   1.20   25.00
pair_coeff   2882   3015   gauss/wall   -5.00    7.81   1.20   25.00
pair_coeff   2882   3016   gauss/wall   -5.00   13.77   1.20   25.00
pair_coeff   2882   3019   gauss/wall   -5.00   17.13   1.20   25.00
pair_coeff   2882   3020   gauss/wall   -5.00   12.84   1.20   25.00
pair_coeff   2882   3021   gauss/wall   -5.00   16.35   1.20   25.00
pair_coeff   2883   3002   gauss/wall   -5.00   16.84   1.20   25.00
pair_coeff   2883   3003   gauss/wall   -5.00    7.65   1.20   25.00
pair_coeff   2883   3004   gauss/wall   -5.00   12.06   1.20   25.00
pair_coeff   2883   3005   gauss/wall   -5.00   13.22   1.20   25.00
pair_coeff   2883   3006   gauss/wall   -5.00   11.07   1.20   25.00
pair_coeff   2883   3007   gauss/wall   -5.00   16.90   1.20   25.00
pair_coeff   2883   3014   gauss/wall   -5.00   11.27   1.20   25.00
pair_coeff   2883   3015   gauss/wall   -5.00    7.81   1.20   25.00
pair_coeff   2883   3016   gauss/wall   -5.00   13.77   1.20   25.00
pair_coeff   2883   3019   gauss/wall   -5.00   17.13   1.20   25.00
pair_coeff   2883   3020   gauss/wall   -5.00   12.84   1.20   25.00
pair_coeff   2883   3021   gauss/wall   -5.00   16.35   1.20   25.00
pair_coeff   2885   3002   gauss/wall   -5.00   16.84   1.20   25.00
pair_coeff   2885   3003   gauss/wall   -5.00    7.65   1.20   25.00
pair_coeff   2885   3004   gauss/wall   -5.00   12.06   1.20   25.00
pair_coeff   2885   3005   gauss/wall   -5.00   13.22   1.20   25.00
pair_coeff   2885   3006   gauss/wall   -5.00   11.07   1.20   25.00
pair_coeff   2885   3007   gauss/wall   -5.00   16.90   1.20   25.00
pair_coeff   2885   3014   gauss/wall   -5.00   11.27   1.20   25.00
pair_coeff   2885   3015   gauss/wall   -5.00    7.81   1.20   25.00
pair_coeff   2885   3016   gauss/wall   -5.00   13.77   1.20   25.00
pair_coeff   2885   3019   gauss/wall   -5.00   17.13   1.20   25.00
pair_coeff   2885   3020   gauss/wall   -5.00   12.84   1.20   25.00
pair_coeff   2885   3021   gauss/wall   -5.00   16.35   1.20   25.00
pair_coeff   2890   3002   gauss/wall   -5.00   16.84   1.20   25.00
pair_coeff   2890   3003   gauss/wall   -5.00    7.65   1.20   25.00
pair_coeff   2890   3004   gauss/wall   -5.00   12.06   1.20   25.00
pair_coeff   2890   3005   gauss/wall   -5.00   13.22   1.20   25.00
pair_coeff   2890   3006   gauss/wall   -5.00   11.07   1.20   25.00
pair_coeff   2890   3007   gauss/wall   -5.00   16.90   1.20   25.00
pair_coeff   2890   3014   gauss/wall   -5.00   11.27   1.20   25.00
pair_coeff   2890   3015   gauss/wall   -5.00    7.81   1.20   25.00
pair_coeff   2890   3016   gauss/wall   -5.00   13.77   1.20   25.00
pair_coeff   2890   3019   gauss/wall   -5.00   17.13   1.20   25.00
pair_coeff   2890   3020   gauss/wall   -5.00   12.84   1.20   25.00
pair_coeff   2890   3021   gauss/wall   -5.00   16.35   1.20   25.00
pair_coeff   2891   3002   gauss/wall   -5.00   16.84   1.20   25.00
pair_coeff   2891   3003   gauss/wall   -5.00    7.65   1.20   25.00
pair_coeff   2891   3004   gauss/wall   -5.00   12.06   1.20   25.00
pair_coeff   2891   3005   gauss/wall   -5.00   13.22   1.20   25.00
pair_coeff   2891   3006   gauss/wall   -5.00   11.07   1.20   25.00
pair_coeff   2891   3007   gauss/wall   -5.00   16.90   1.20   25.00
pair_coeff   2891   3014   gauss/wall   -5.00   11.27   1.20   25.00
pair_coeff   2891   3015   gauss/wall   -5.00    7.81   1.20   25.00
pair_coeff   2891   3016   gauss/wall   -5.00   13.77   1.20   25.00
pair_coeff   2891   3019   gauss/wall   -5.00   17.13   1.20   25.00
pair_coeff   2891   3020   gauss/wall   -5.00   12.84   1.20   25.00
pair_coeff   2891   3021   gauss/wall   -5.00   16.35   1.20   25.00
pair_coeff   2892   3002   gauss/wall   -5.00   16.84   1.20   25.00
pair_coeff   2892   3003   gauss/wall   -5.00    7.65   1.20   25.00
pair_coeff   2892   3004   gauss/wall   -5.00   12.06   1.20   25.00
pair_coeff   2892   3005   gauss/wall   -5.00   13.22   1.20   25.00
pair_coeff   2892   3006   gauss/wall   -5.00   11.07   1.20   25.00
pair_coeff   2892   3007   gauss/wall   -5.00   16.90   1.20   25.00
pair_coeff   2892   3014   gauss/wall   -5.00   11.27   1.20   25.00
pair_coeff   2892   3015   gauss/wall   -5.00    7.81   1.20   25.00
pair_coeff   2892   3016   gauss/wall   -5.00   13.77   1.20   25.00
pair_coeff   2892   3019   gauss/wall   -5.00   17.13   1.20   25.00
pair_coeff   2892   3020   gauss/wall   -5.00   12.84   1.20   25.00
pair_coeff   2892   3021   gauss/wall   -5.00   16.35   1.20   25.00
pair_coeff   2894   3002   gauss/wall   -5.00   16.84   1.20   25.00
pair_coeff   2894   3003   gauss/wall   -5.00    7.65   1.20   25.00
pair_coeff   2894   3004   gauss/wall   -5.00   12.06   1.20   25.00
pair_coeff   2894   3005   gauss/wall   -5.00   13.22   1.20   25.00
pair_coeff   2894   3006   gauss/wall   -5.00   11.07   1.20   25.00
pair_coeff   2894   3007   gauss/wall   -5.00   16.90   1.20   25.00
pair_coeff   2894   3014   gauss/wall   -5.00   11.27   1.20   25.00
pair_coeff   2894   3015   gauss/wall   -5.00    7.81   1.20   25.00
pair_coeff   2894   3016   gauss/wall   -5.00   13.77   1.20   25.00
pair_coeff   2894   3019   gauss/wall   -5.00   17.13   1.20   25.00
pair_coeff   2894   3020   gauss/wall   -5.00   12.84   1.20   25.00
pair_coeff   2894   3021   gauss/wall   -5.00   16.35   1.20   25.00
pair_coeff   2896   3002   gauss/wall   -5.00   16.84   1.20   25.00
pair_coeff   2896   3003   gauss/wall   -5.00    7.65   1.20   25.00
pair_coeff   2896   3004   gauss/wall   -5.00   12.06   1.20   25.00
pair_coeff   2896   3005   gauss/wall   -5.00   13.22   1.20   25.00
pair_coeff   2896   3006   gauss/wall   -5.00   11.07   1.20   25.00
pair_coeff   2896   3007   gauss/wall   -5.00   16.90   1.20   25.00
pair_coeff   2896   3014   gauss/wall   -5.00   11.27   1.20   25.00
pair_coeff   2896   3015   gauss/wall   -5.00    7.81   1.20   25.00
pair_coeff   2896   3016   gauss/wall   -5.00   13.77   1.20   25.00
pair_coeff   2896   3019   gauss/wall   -5.00   17.13   1.20   25.00
pair_coeff   2896   3020   gauss/wall   -5.00   12.84   1.20   25.00
pair_coeff   2896   3021   gauss/wall   -5.00   16.35   1.20   25.00
pair_coeff   2912   3002   gauss/wall   -5.00   16.84   1.20   25.00
pair_coeff   2912   3003   gauss/wall   -5.00    7.65   1.20   25.00
pair_coeff   2912   3004   gauss/wall   -5.00   12.06   1.20   25.00
pair_coeff   2912   3005   gauss/wall   -5.00   13.22   1.20   25.00
pair_coeff   2912   3006   gauss/wall   -5.00   11.07   1.20   25.00
pair_coeff   2912   3007   gauss/wall   -5.00   16.90   1.20   25.00
pair_coeff   2912   3014   gauss/wall   -5.00   11.27   1.20   25.00
pair_coeff   2912   3015   gauss/wall   -5.00    7.81   1.20   25.00
pair_coeff   2912   3016   gauss/wall   -5.00   13.77   1.20   25.00
pair_coeff   2912   3019   gauss/wall   -5.00   17.13   1.20   25.00
pair_coeff   2912   3020   gauss/wall   -5.00   12.84   1.20   25.00
pair_coeff   2912   3021   gauss/wall   -5.00   16.35   1.20   25.00
pair_coeff   2919   3002   gauss/wall   -5.00   16.84   1.20   25.00
pair_coeff   2919   3003   gauss/wall   -5.00    7.65   1.20   25.00
pair_coeff   2919   3004   gauss/wall   -5.00   12.06   1.20   25.00
pair_coeff   2919   3005   gauss/wall   -5.00   13.22   1.20   25.00
pair_coeff   2919   3006   gauss/wall   -5.00   11.07   1.20   25.00
pair_coeff   2919   3007   gauss/wall   -5.00   16.90   1.20   25.00
pair_coeff   2919   3014   gauss/wall   -5.00   11.27   1.20   25.00
pair_coeff   2919   3015   gauss/wall   -5.00    7.81   1.20   25.00
pair_coeff   2919   3016   gauss/wall   -5.00   13.77   1.20   25.00
pair_coeff   2919   3019   gauss/wall   -5.00   17.13   1.20   25.00
pair_coeff   2919   3020   gauss/wall   -5.00   12.84   1.20   25.00
pair_coeff   2919   3021   gauss/wall   -5.00   16.35   1.20   25.00
pair_coeff   2920   3002   gauss/wall   -5.00   16.84   1.20   25.00
pair_coeff   2920   3003   gauss/wall   -5.00    7.65   1.20   25.00
pair_coeff   2920   3004   gauss/wall   -5.00   12.06   1.20   25.00
pair_coeff   2920   3005   gauss/wall   -5.00   13.22   1.20   25.00
pair_coeff   2920   3006   gauss/wall   -5.00   11.07   1.20   25.00
pair_coeff   2920   3007   gauss/wall   -5.00   16.90   1.20   25.00
pair_coeff   2920   3014   gauss/wall   -5.00   11.27   1.20   25.00
pair_coeff   2920   3015   gauss/wall   -5.00    7.81   1.20   25.00
pair_coeff   2920   3016   gauss/wall   -5.00   13.77   1.20   25.00
pair_coeff   2920   3019   gauss/wall   -5.00   17.13   1.20   25.00
pair_coeff   2920   3020   gauss/wall   -5.00   12.84   1.20   25.00
pair_coeff   2920   3021   gauss/wall   -5.00   16.35   1.20   25.00
pair_coeff   2922   3002   gauss/wall   -5.00   16.84   1.20   25.00
pair_coeff   2922   3003   gauss/wall   -5.00    7.65   1.20   25.00
pair_coeff   2922   3004   gauss/wall   -5.00   12.06   1.20   25.00
pair_coeff   2922   3005   gauss/wall   -5.00   13.22   1.20   25.00
pair_coeff   2922   3006   gauss/wall   -5.00   11.07   1.20   25.00
pair_coeff   2922   3007   gauss/wall   -5.00   16.90   1.20   25.00
pair_coeff   2922   3014   gauss/wall   -5.00   11.27   1.20   25.00
pair_coeff   2922   3015   gauss/wall   -5.00    7.81   1.20   25.00
pair_coeff   2922   3016   gauss/wall   -5.00   13.77   1.20   25.00
pair_coeff   2922   3019   gauss/wall   -5.00   17.13   1.20   25.00
pair_coeff   2922   3020   gauss/wall   -5.00   12.84   1.20   25.00
pair_coeff   2922   3021   gauss/wall   -5.00   16.35   1.20   25.00
pair_coeff   2925   3002   gauss/wall   -5.00   16.84   1.20   25.00
pair_coeff   2925   3003   gauss/wall   -5.00    7.65   1.20   25.00
pair_coeff   2925   3004   gauss/wall   -5.00   12.06   1.20   25.00
pair_coeff   2925   3005   gauss/wall   -5.00   13.22   1.20   25.00
pair_coeff   2925   3006   gauss/wall   -5.00   11.07   1.20   25.00
pair_coeff   2925   3007   gauss/wall   -5.00   16.90   1.20   25.00
pair_coeff   2925   3014   gauss/wall   -5.00   11.27   1.20   25.00
pair_coeff   2925   3015   gauss/wall   -5.00    7.81   1.20   25.00
pair_coeff   2925   3016   gauss/wall   -5.00   13.77   1.20   25.00
pair_coeff   2925   3019   gauss/wall   -5.00   17.13   1.20   25.00
pair_coeff   2925   3020   gauss/wall   -5.00   12.84   1.20   25.00
pair_coeff   2925   3021   gauss/wall   -5.00   16.35   1.20   25.00
pair_coeff   2927   3002   gauss/wall   -5.00   16.84   1.20   25.00
pair_coeff   2927   3003   gauss/wall   -5.00    7.65   1.20   25.00
pair_coeff   2927   3004   gauss/wall   -5.00   12.06   1.20   25.00
pair_coeff   2927   3005   gauss/wall   -5.00   13.22   1.20   25.00
pair_coeff   2927   3006   gauss/wall   -5.00   11.07   1.20   25.00
pair_coeff   2927   3007   gauss/wall   -5.00   16.90   1.20   25.00
pair_coeff   2927   3014   gauss/wall   -5.00   11.27   1.20   25.00
pair_coeff   2927   3015   gauss/wall   -5.00    7.81   1.20   25.00
pair_coeff   2927   3016   gauss/wall   -5.00   13.77   1.20   25.00
pair_coeff   2927   3019   gauss/wall   -5.00   17.13   1.20   25.00
pair_coeff   2927   3020   gauss/wall   -5.00   12.84   1.20   25.00
pair_coeff   2927   3021   gauss/wall   -5.00   16.35   1.20   25.00
pair_coeff   2931   3002   gauss/wall   -5.00   16.84   1.20   25.00
pair_coeff   2931   3003   gauss/wall   -5.00    7.65   1.20   25.00
pair_coeff   2931   3004   gauss/wall   -5.00   12.06   1.20   25.00
pair_coeff   2931   3005   gauss/wall   -5.00   13.22   1.20   25.00
pair_coeff   2931   3006   gauss/wall   -5.00   11.07   1.20   25.00
pair_coeff   2931   3007   gauss/wall   -5.00   16.90   1.20   25.00
pair_coeff   2931   3014   gauss/wall   -5.00   11.27   1.20   25.00
pair_coeff   2931   3015   gauss/wall   -5.00    7.81   1.20   25.00
pair_coeff   2931   3016   gauss/wall   -5.00   13.77   1.20   25.00
pair_coeff   2931   3019   gauss/wall   -5.00   17.13   1.20   25.00
pair_coeff   2931   3020   gauss/wall   -5.00   12.84   1.20   25.00
pair_coeff   2931   3021   gauss/wall   -5.00   16.35   1.20   25.00
pair_coeff   2933   3002   gauss/wall   -5.00   16.84   1.20   25.00
pair_coeff   2933   3003   gauss/wall   -5.00    7.65   1.20   25.00
pair_coeff   2933   3004   gauss/wall   -5.00   12.06   1.20   25.00
pair_coeff   2933   3005   gauss/wall   -5.00   13.22   1.20   25.00
pair_coeff   2933   3006   gauss/wall   -5.00   11.07   1.20   25.00
pair_coeff   2933   3007   gauss/wall   -5.00   16.90   1.20   25.00
pair_coeff   2933   3014   gauss/wall   -5.00   11.27   1.20   25.00
pair_coeff   2933   3015   gauss/wall   -5.00    7.81   1.20   25.00
pair_coeff   2933   3016   gauss/wall   -5.00   13.77   1.20   25.00
pair_coeff   2933   3019   gauss/wall   -5.00   17.13   1.20   25.00
pair_coeff   2933   3020   gauss/wall   -5.00   12.84   1.20   25.00
pair_coeff   2933   3021   gauss/wall   -5.00   16.35   1.20   25.00
pair_coeff   2935   3002   gauss/wall   -5.00   16.84   1.20   25.00
pair_coeff   2935   3003   gauss/wall   -5.00    7.65   1.20   25.00
pair_coeff   2935   3004   gauss/wall   -5.00   12.06   1.20   25.00
pair_coeff   2935   3005   gauss/wall   -5.00   13.22   1.20   25.00
pair_coeff   2935   3006   gauss/wall   -5.00   11.07   1.20   25.00
pair_coeff   2935   3007   gauss/wall   -5.00   16.90   1.20   25.00
pair_coeff   2935   3014   gauss/wall   -5.00   11.27   1.20   25.00
pair_coeff   2935   3015   gauss/wall   -5.00    7.81   1.20   25.00
pair_coeff   2935   3016   gauss/wall   -5.00   13.77   1.20   25.00
pair_coeff   2935   3019   gauss/wall   -5.00   17.13   1.20   25.00
pair_coeff   2935   3020   gauss/wall   -5.00   12.84   1.20   25.00
pair_coeff   2935   3021   gauss/wall   -5.00   16.35   1.20   25.00
pair_coeff   2937   3002   gauss/wall   -5.00   16.84   1.20   25.00
pair_coeff   2937   3003   gauss/wall   -5.00    7.65   1.20   25.00
pair_coeff   2937   3004   gauss/wall   -5.00   12.06   1.20   25.00
pair_coeff   2937   3005   gauss/wall   -5.00   13.22   1.20   25.00
pair_coeff   2937   3006   gauss/wall   -5.00   11.07   1.20   25.00
pair_coeff   2937   3007   gauss/wall   -5.00   16.90   1.20   25.00
pair_coeff   2937   3014   gauss/wall   -5.00   11.27   1.20   25.00
pair_coeff   2937   3015   gauss/wall   -5.00    7.81   1.20   25.00
pair_coeff   2937   3016   gauss/wall   -5.00   13.77   1.20   25.00
pair_coeff   2937   3019   gauss/wall   -5.00   17.13   1.20   25.00
pair_coeff   2937   3020   gauss/wall   -5.00   12.84   1.20   25.00
pair_coeff   2937   3021   gauss/wall   -5.00   16.35   1.20   25.00
pair_coeff   2938   3002   gauss/wall   -5.00   16.84   1.20   25.00
pair_coeff   2938   3003   gauss/wall   -5.00    7.65   1.20   25.00
pair_coeff   2938   3004   gauss/wall   -5.00   12.06   1.20   25.00
pair_coeff   2938   3005   gauss/wall   -5.00   13.22   1.20   25.00
pair_coeff   2938   3006   gauss/wall   -5.00   11.07   1.20   25.00
pair_coeff   2938   3007   gauss/wall   -5.00   16.90   1.20   25.00
pair_coeff   2938   3014   gauss/wall   -5.00   11.27   1.20   25.00
pair_coeff   2938   3015   gauss/wall   -5.00    7.81   1.20   25.00
pair_coeff   2938   3016   gauss/wall   -5.00   13.77   1.20   25.00
pair_coeff   2938   3019   gauss/wall   -5.00   17.13   1.20   25.00
pair_coeff   2938   3020   gauss/wall   -5.00   12.84   1.20   25.00
pair_coeff   2938   3021   gauss/wall   -5.00   16.35   1.20   25.00
pair_coeff   2940   3002   gauss/wall   -5.00   16.84   1.20   25.00
pair_coeff   2940   3003   gauss/wall   -5.00    7.65   1.20   25.00
pair_coeff   2940   3004   gauss/wall   -5.00   12.06   1.20   25.00
pair_coeff   2940   3005   gauss/wall   -5.00   13.22   1.20   25.00
pair_coeff   2940   3006   gauss/wall   -5.00   11.07   1.20   25.00
pair_coeff   2940   3007   gauss/wall   -5.00   16.90   1.20   25.00
pair_coeff   2940   3014   gauss/wall   -5.00   11.27   1.20   25.00
pair_coeff   2940   3015   gauss/wall   -5.00    7.81   1.20   25.00
pair_coeff   2940   3016   gauss/wall   -5.00   13.77   1.20   25.00
pair_coeff   2940   3019   gauss/wall   -5.00   17.13   1.20   25.00
pair_coeff   2940   3020   gauss/wall   -5.00   12.84   1.20   25.00
pair_coeff   2940   3021   gauss/wall   -5.00   16.35   1.20   25.00
pair_coeff   2941   3002   gauss/wall   -5.00   16.84   1.20   25.00
pair_coeff   2941   3003   gauss/wall   -5.00    7.65   1.20   25.00
pair_coeff   2941   3004   gauss/wall   -5.00   12.06   1.20   25.00
pair_coeff   2941   3005   gauss/wall   -5.00   13.22   1.20   25.00
pair_coeff   2941   3006   gauss/wall   -5.00   11.07   1.20   25.00
pair_coeff   2941   3007   gauss/wall   -5.00   16.90   1.20   25.00
pair_coeff   2941   3014   gauss/wall   -5.00   11.27   1.20   25.00
pair_coeff   2941   3015   gauss/wall   -5.00    7.81   1.20   25.00
pair_coeff   2941   3016   gauss/wall   -5.00   13.77   1.20   25.00
pair_coeff   2941   3019   gauss/wall   -5.00   17.13   1.20   25.00
pair_coeff   2941   3020   gauss/wall   -5.00   12.84   1.20   25.00
pair_coeff   2941   3021   gauss/wall   -5.00   16.35   1.20   25.00
pair_coeff   2943   3002   gauss/wall   -5.00   16.84   1.20   25.00
pair_coeff   2943   3003   gauss/wall   -5.00    7.65   1.20   25.00
pair_coeff   2943   3004   gauss/wall   -5.00   12.06   1.20   25.00
pair_coeff   2943   3005   gauss/wall   -5.00   13.22   1.20   25.00
pair_coeff   2943   3006   gauss/wall   -5.00   11.07   1.20   25.00
pair_coeff   2943   3007   gauss/wall   -5.00   16.90   1.20   25.00
pair_coeff   2943   3014   gauss/wall   -5.00   11.27   1.20   25.00
pair_coeff   2943   3015   gauss/wall   -5.00    7.81   1.20   25.00
pair_coeff   2943   3016   gauss/wall   -5.00   13.77   1.20   25.00
pair_coeff   2943   3019   gauss/wall   -5.00   17.13   1.20   25.00
pair_coeff   2943   3020   gauss/wall   -5.00   12.84   1.20   25.00
pair_coeff   2943   3021   gauss/wall   -5.00   16.35   1.20   25.00
pair_coeff   2945   3002   gauss/wall   -5.00   16.84   1.20   25.00
pair_coeff   2945   3003   gauss/wall   -5.00    7.65   1.20   25.00
pair_coeff   2945   3004   gauss/wall   -5.00   12.06   1.20   25.00
pair_coeff   2945   3005   gauss/wall   -5.00   13.22   1.20   25.00
pair_coeff   2945   3006   gauss/wall   -5.00   11.07   1.20   25.00
pair_coeff   2945   3007   gauss/wall   -5.00   16.90   1.20   25.00
pair_coeff   2945   3014   gauss/wall   -5.00   11.27   1.20   25.00
pair_coeff   2945   3015   gauss/wall   -5.00    7.81   1.20   25.00
pair_coeff   2945   3016   gauss/wall   -5.00   13.77   1.20   25.00
pair_coeff   2945   3019   gauss/wall   -5.00   17.13   1.20   25.00
pair_coeff   2945   3020   gauss/wall   -5.00   12.84   1.20   25.00
pair_coeff   2945   3021   gauss/wall   -5.00   16.35   1.20   25.00
pair_coeff   2948   3002   gauss/wall   -5.00   16.84   1.20   25.00
pair_coeff   2948   3003   gauss/wall   -5.00    7.65   1.20   25.00
pair_coeff   2948   3004   gauss/wall   -5.00   12.06   1.20   25.00
pair_coeff   2948   3005   gauss/wall   -5.00   13.22   1.20   25.00
pair_coeff   2948   3006   gauss/wall   -5.00   11.07   1.20   25.00
pair_coeff   2948   3007   gauss/wall   -5.00   16.90   1.20   25.00
pair_coeff   2948   3014   gauss/wall   -5.00   11.27   1.20   25.00
pair_coeff   2948   3015   gauss/wall   -5.00    7.81   1.20   25.00
pair_coeff   2948   3016   gauss/wall   -5.00   13.77   1.20   25.00
pair_coeff   2948   3019   gauss/wall   -5.00   17.13   1.20   25.00
pair_coeff   2948   3020   gauss/wall   -5.00   12.84   1.20   25.00
pair_coeff   2948   3021   gauss/wall   -5.00   16.35   1.20   25.00
pair_coeff   2949   3002   gauss/wall   -5.00   16.84   1.20   25.00
pair_coeff   2949   3003   gauss/wall   -5.00    7.65   1.20   25.00
pair_coeff   2949   3004   gauss/wall   -5.00   12.06   1.20   25.00
pair_coeff   2949   3005   gauss/wall   -5.00   13.22   1.20   25.00
pair_coeff   2949   3006   gauss/wall   -5.00   11.07   1.20   25.00
pair_coeff   2949   3007   gauss/wall   -5.00   16.90   1.20   25.00
pair_coeff   2949   3014   gauss/wall   -5.00   11.27   1.20   25.00
pair_coeff   2949   3015   gauss/wall   -5.00    7.81   1.20   25.00
pair_coeff   2949   3016   gauss/wall   -5.00   13.77   1.20   25.00
pair_coeff   2949   3019   gauss/wall   -5.00   17.13   1.20   25.00
pair_coeff   2949   3020   gauss/wall   -5.00   12.84   1.20   25.00
pair_coeff   2949   3021   gauss/wall   -5.00   16.35   1.20   25.00
pair_coeff   2951   3002   gauss/wall   -5.00   16.84   1.20   25.00
pair_coeff   2951   3003   gauss/wall   -5.00    7.65   1.20   25.00
pair_coeff   2951   3004   gauss/wall   -5.00   12.06   1.20   25.00
pair_coeff   2951   3005   gauss/wall   -5.00   13.22   1.20   25.00
pair_coeff   2951   3006   gauss/wall   -5.00   11.07   1.20   25.00
pair_coeff   2951   3007   gauss/wall   -5.00   16.90   1.20   25.00
pair_coeff   2951   3014   gauss/wall   -5.00   11.27   1.20   25.00
pair_coeff   2951   3015   gauss/wall   -5.00    7.81   1.20   25.00
pair_coeff   2951   3016   gauss/wall   -5.00   13.77   1.20   25.00
pair_coeff   2951   3019   gauss/wall   -5.00   17.13   1.20   25.00
pair_coeff   2951   3020   gauss/wall   -5.00   12.84   1.20   25.00
pair_coeff   2951   3021   gauss/wall   -5.00   16.35   1.20   25.00
pair_coeff   2954   3002   gauss/wall   -5.00   16.84   1.20   25.00
pair_coeff   2954   3003   gauss/wall   -5.00    7.65   1.20   25.00
pair_coeff   2954   3004   gauss/wall   -5.00   12.06   1.20   25.00
pair_coeff   2954   3005   gauss/wall   -5.00   13.22   1.20   25.00
pair_coeff   2954   3006   gauss/wall   -5.00   11.07   1.20   25.00
pair_coeff   2954   3007   gauss/wall   -5.00   16.90   1.20   25.00
pair_coeff   2954   3014   gauss/wall   -5.00   11.27   1.20   25.00
pair_coeff   2954   3015   gauss/wall   -5.00    7.81   1.20   25.00
pair_coeff   2954   3016   gauss/wall   -5.00   13.77   1.20   25.00
pair_coeff   2954   3019   gauss/wall   -5.00   17.13   1.20   25.00
pair_coeff   2954   3020   gauss/wall   -5.00   12.84   1.20   25.00
pair_coeff   2954   3021   gauss/wall   -5.00   16.35   1.20   25.00
pair_coeff   2957   3002   gauss/wall   -5.00   16.84   1.20   25.00
pair_coeff   2957   3003   gauss/wall   -5.00    7.65   1.20   25.00