pair_coeff   949  1951   gauss/wall   -6.0   14.95   1.20   25.00
pair_coeff   949  1952   gauss/wall   -6.0   16.38   1.20   25.00
pair_coeff   950  1830   gauss/wall   -6.0   16.36   1.20   25.00
pair_coeff   951  1830   gauss/wall   -6.0   16.24   1.20   25.00
pair_coeff   952  1830   gauss/wall   -6.0   14.66   1.20   25.00
pair_coeff   953  1830   gauss/wall   -6.0   16.80   1.20   25.00
pair_coeff   954  1829   gauss/wall   -6.0   15.39   1.20   25.00
pair_coeff   954  1831   gauss/wall   -6.0   16.26   1.20   25.00
pair_coeff   955  1826   gauss/wall   -6.0   13.90   1.20   25.00
pair_coeff   955  1827   gauss/wall   -6.0   17.08   1.20   25.00
pair_coeff   955  1828   gauss/wall   -6.0   15.91   1.20   25.00
pair_coeff   955  1832   gauss/wall   -6.0   15.90   1.20   25.00
pair_coeff   956  1809   gauss/wall   -6.0   17.31   1.20   25.00
pair_coeff   956  1815   gauss/wall   -6.0   14.28   1.20   25.00
pair_coeff   956  1819   gauss/wall   -6.0   14.66   1.20   25.00
pair_coeff   956  1820   gauss/wall   -6.0   15.85   1.20   25.00
pair_coeff   956  1823   gauss/wall   -6.0   15.52   1.20   25.00
pair_coeff   956  1828   gauss/wall   -6.0   15.09   1.20   25.00
pair_coeff   956  1829   gauss/wall   -6.0   14.07   1.20   25.00
pair_coeff   956  1832   gauss/wall   -6.0   17.38   1.20   25.00
pair_coeff   956  1930   gauss/wall   -6.0   15.81   1.20   25.00
pair_coeff   956  1952   gauss/wall   -6.0   15.91   1.20   25.00
pair_coeff   956  1953   gauss/wall   -6.0   17.16   1.20   25.00
pair_coeff   957  1819   gauss/wall   -6.0   17.22   1.20   25.00
pair_coeff   957  1826   gauss/wall   -6.0   12.77   1.20   25.00
pair_coeff   957  1828   gauss/wall   -6.0   14.74   1.20   25.00
pair_coeff   957  1930   gauss/wall   -6.0   14.50   1.20   25.00
pair_coeff   957  1931   gauss/wall   -6.0   16.87   1.20   25.00
pair_coeff   957  1946   gauss/wall   -6.0   16.60   1.20   25.00
pair_coeff   957  1949   gauss/wall   -6.0   16.00   1.20   25.00
pair_coeff   957  1950   gauss/wall   -6.0   14.08   1.20   25.00
pair_coeff   957  1951   gauss/wall   -6.0   14.09   1.20   25.00
pair_coeff   957  1954   gauss/wall   -6.0   16.98   1.20   25.00
pair_coeff   958  1827   gauss/wall   -6.0   16.97   1.20   25.00
pair_coeff   958  1828   gauss/wall   -6.0   16.99   1.20   25.00
pair_coeff   967  1827   gauss/wall   -6.0   15.56   1.20   25.00
pair_coeff   967  1831   gauss/wall   -6.0   13.01   1.20   25.00
pair_coeff   968  1827   gauss/wall   -6.0   13.99   1.20   25.00
pair_coeff   968  1828   gauss/wall   -6.0   15.01   1.20   25.00
pair_coeff   968  1946   gauss/wall   -6.0   15.04   1.20   25.00
pair_coeff   968  1947   gauss/wall   -6.0   14.90   1.20   25.00
pair_coeff   968  1948   gauss/wall   -6.0   17.00   1.20   25.00
pair_coeff   968  1949   gauss/wall   -6.0   14.63   1.20   25.00
pair_coeff   968  1950   gauss/wall   -6.0   17.08   1.20   25.00
pair_coeff   969  1964   gauss/wall   -6.0   16.80   1.20   25.00
pair_coeff   969  2138   gauss/wall   -6.0   17.09   1.20   25.00
pair_coeff   970  1827   gauss/wall   -6.0   12.74   1.20   25.00
pair_coeff   970  1828   gauss/wall   -6.0   13.42   1.20   25.00
pair_coeff   970  1946   gauss/wall   -6.0   13.39   1.20   25.00
pair_coeff   970  1947   gauss/wall   -6.0   14.67   1.20   25.00
pair_coeff   971  1827   gauss/wall   -6.0   16.27   1.20   25.00
pair_coeff   971  1828   gauss/wall   -6.0   14.26   1.20   25.00
pair_coeff   984  1994   gauss/wall   -6.0   15.67   1.20   25.00
pair_coeff   984  1995   gauss/wall   -6.0   15.23   1.20   25.00
pair_coeff   985  1993   gauss/wall   -6.0   16.26   1.20   25.00
pair_coeff   985  1994   gauss/wall   -6.0   14.28   1.20   25.00
pair_coeff   985  1995   gauss/wall   -6.0   13.58   1.20   25.00
pair_coeff   985  2001   gauss/wall   -6.0   15.66   1.20   25.00
pair_coeff   985  2002   gauss/wall   -6.0   14.00   1.20   25.00
pair_coeff   985  2003   gauss/wall   -6.0   12.59   1.20   25.00
pair_coeff   986  1993   gauss/wall   -6.0   16.21   1.20   25.00
pair_coeff   986  1994   gauss/wall   -6.0   13.92   1.20   25.00
pair_coeff   986  1995   gauss/wall   -6.0   12.65   1.20   25.00
pair_coeff   986  1996   gauss/wall   -6.0   15.81   1.20   25.00
pair_coeff   986  2004   gauss/wall   -6.0   13.96   1.20   25.00
pair_coeff   987  2002   gauss/wall   -6.0   14.68   1.20   25.00
pair_coeff   987  2004   gauss/wall   -6.0   15.67   1.20   25.00
pair_coeff   987  2007   gauss/wall   -6.0   14.66   1.20   25.00
pair_coeff   987  2008   gauss/wall   -6.0   16.50   1.20   25.00
pair_coeff   988  2003   gauss/wall   -6.0   14.50   1.20   25.00
pair_coeff   993  2134   gauss/wall   -6.0   17.38   1.20   25.00
pair_coeff   993  2143   gauss/wall   -6.0   16.95   1.20   25.00
pair_coeff   993  2144   gauss/wall   -6.0   15.70   1.20   25.00
pair_coeff   994  1948   gauss/wall   -6.0   15.38   1.20   25.00
pair_coeff   994  1971   gauss/wall   -6.0   16.07   1.20   25.00
pair_coeff   994  1972   gauss/wall   -6.0   14.65   1.20   25.00
pair_coeff   994  1983   gauss/wall   -6.0   15.39   1.20   25.00
pair_coeff   994  2130   gauss/wall   -6.0   14.67   1.20   25.00
pair_coeff   994  2134   gauss/wall   -6.0   16.53   1.20   25.00
pair_coeff   994  2141   gauss/wall   -6.0   16.71   1.20   25.00
pair_coeff   994  2144   gauss/wall   -6.0   14.03   1.20   25.00
pair_coeff   994  2146   gauss/wall   -6.0   14.79   1.20   25.00
pair_coeff   994  2149   gauss/wall   -6.0   16.53   1.20   25.00
pair_coeff   994  2150   gauss/wall   -6.0   17.50   1.20   25.00
pair_coeff   995  1947   gauss/wall   -6.0   14.38   1.20   25.00
pair_coeff   995  1948   gauss/wall   -6.0   14.56   1.20   25.00
pair_coeff   995  1971   gauss/wall   -6.0   14.52   1.20   25.00
pair_coeff   995  1973   gauss/wall   -6.0   17.27   1.20   25.00
pair_coeff   995  1982   gauss/wall   -6.0   13.72   1.20   25.00
pair_coeff   995  1984   gauss/wall   -6.0   16.84   1.20   25.00
pair_coeff   995  2076   gauss/wall   -6.0   15.46   1.20   25.00
pair_coeff   995  2135   gauss/wall   -6.0   13.34   1.20   25.00
pair_coeff   995  2144   gauss/wall   -6.0   17.05   1.20   25.00
pair_coeff   995  2146   gauss/wall   -6.0   13.05   1.20   25.00
pair_coeff   995  2149   gauss/wall   -6.0   14.25   1.20   25.00
pair_coeff   995  2150   gauss/wall   -6.0   13.66   1.20   25.00
pair_coeff   996  1947   gauss/wall   -6.0   13.59   1.20   25.00
pair_coeff   996  1948   gauss/wall   -6.0   13.37   1.20   25.00
pair_coeff   996  1982   gauss/wall   -6.0   16.74   1.20   25.00
pair_coeff   996  1983   gauss/wall   -6.0   15.46   1.20   25.00
pair_coeff   996  2139   gauss/wall   -6.0   15.28   1.20   25.00
pair_coeff   996  2140   gauss/wall   -6.0   14.28   1.20   25.00
pair_coeff   997  1947   gauss/wall   -6.0   16.88   1.20   25.00
pair_coeff   997  1948   gauss/wall   -6.0   14.83   1.20   25.00
pair_coeff   998  2145   gauss/wall   -6.0   16.80   1.20   25.00
pair_coeff  1000  2140   gauss/wall   -6.0   16.74   1.20   25.00
pair_coeff  1000  2145   gauss/wall   -6.0   15.04   1.20   25.00
pair_coeff  1002  1995   gauss/wall   -6.0   17.09   1.20   25.00
pair_coeff  1004  2003   gauss/wall   -6.0   15.59   1.20   25.00
pair_coeff  1006  2003   gauss/wall   -6.0   16.29   1.20   25.00
pair_coeff  1014  1946   gauss/wall   -6.0   16.74   1.20   25.00
pair_coeff  1014  1947   gauss/wall   -6.0   15.75   1.20   25.00
pair_coeff  1014  2134   gauss/wall   -6.0   16.70   1.20   25.00
pair_coeff  1015  1889   gauss/wall   -6.0   16.20   1.20   25.00
pair_coeff  1015  1890   gauss/wall   -6.0   13.61   1.20   25.00
pair_coeff  1015  1947   gauss/wall   -6.0   13.59   1.20   25.00
pair_coeff  1015  1964   gauss/wall   -6.0   17.28   1.20   25.00
pair_coeff  1015  2122   gauss/wall   -6.0   15.80   1.20   25.00
pair_coeff  1015  2126   gauss/wall   -6.0   17.09   1.20   25.00
pair_coeff  1015  2131   gauss/wall   -6.0   16.03   1.20   25.00
pair_coeff  1015  2135   gauss/wall   -6.0   15.76   1.20   25.00
pair_coeff  1015  2138   gauss/wall   -6.0   17.00   1.20   25.00
pair_coeff  1016  1946   gauss/wall   -6.0   14.19   1.20   25.00
pair_coeff  1016  1947   gauss/wall   -6.0   12.89   1.20   25.00
pair_coeff  1016  2122   gauss/wall   -6.0   16.49   1.20   25.00
pair_coeff  1016  2127   gauss/wall   -6.0   15.54   1.20   25.00
pair_coeff  1016  2129   gauss/wall   -6.0   17.40   1.20   25.00
pair_coeff  1016  2131   gauss/wall   -6.0   14.34   1.20   25.00
pair_coeff  1016  2140   gauss/wall   -6.0   16.55   1.20   25.00
pair_coeff  1016  2141   gauss/wall   -6.0   16.59   1.20   25.00
pair_coeff  1016  2143   gauss/wall   -6.0   16.46   1.20   25.00
pair_coeff  1016  2144   gauss/wall   -6.0   17.36   1.20   25.00
pair_coeff  1017  1947   gauss/wall   -6.0   13.94   1.20   25.00
pair_coeff  1017  2127   gauss/wall   -6.0   16.77   1.20   25.00
pair_coeff  1017  2131   gauss/wall   -6.0   15.96   1.20   25.00
pair_coeff  1017  2137   gauss/wall   -6.0   15.71   1.20   25.00
pair_coeff  1017  2139   gauss/wall   -6.0   14.42   1.20   25.00
pair_coeff  1017  2140   gauss/wall   -6.0   12.50   1.20   25.00
pair_coeff  1017  2141   gauss/wall   -6.0   13.75   1.20   25.00
pair_coeff  1017  2143   gauss/wall   -6.0   14.57   1.20   25.00
pair_coeff  1017  2144   gauss/wall   -6.0   13.22   1.20   25.00
pair_coeff  1017  2145   gauss/wall   -6.0   16.86   1.20   25.00
pair_coeff  1018  2130   gauss/wall   -6.0   16.40   1.20   25.00
pair_coeff  1018  2134   gauss/wall   -6.0   13.02   1.20   25.00
pair_coeff  1018  2135   gauss/wall   -6.0   13.42   1.20   25.00
pair_coeff  1018  2137   gauss/wall   -6.0   16.49   1.20   25.00
pair_coeff  1018  2139   gauss/wall   -6.0   13.17   1.20   25.00
pair_coeff  1018  2141   gauss/wall   -6.0   12.86   1.20   25.00
pair_coeff  1018  2143   gauss/wall   -6.0   14.03   1.20   25.00
pair_coeff  1018  2145   gauss/wall   -6.0   14.45   1.20   25.00
pair_coeff  1019  2138   gauss/wall   -6.0   13.77   1.20   25.00
pair_coeff  1019  2139   gauss/wall   -6.0   13.25   1.20   25.00
pair_coeff  1019  2141   gauss/wall   -6.0   13.46   1.20   25.00
pair_coeff  1019  2143   gauss/wall   -6.0   15.71   1.20   25.00
pair_coeff  1019  2145   gauss/wall   -6.0   13.34   1.20   25.00
pair_coeff  1020  2073   gauss/wall   -6.0   17.44   1.20   25.00
pair_coeff  1020  2139   gauss/wall   -6.0   16.79   1.20   25.00
pair_coeff  1020  2140   gauss/wall   -6.0   12.86   1.20   25.00
pair_coeff  1020  2141   gauss/wall   -6.0   17.05   1.20   25.00
pair_coeff  1020  2145   gauss/wall   -6.0   15.90   1.20   25.00
pair_coeff  1022  2144   gauss/wall   -6.0   17.01   1.20   25.00
pair_coeff  1023  2141   gauss/wall   -6.0   15.97   1.20   25.00
pair_coeff  1023  2143   gauss/wall   -6.0   13.72   1.20   25.00
pair_coeff  1023  2152   gauss/wall   -6.0   16.05   1.20   25.00
pair_coeff  1027  2143   gauss/wall   -6.0   13.73   1.20   25.00
pair_coeff  1028  2141   gauss/wall   -6.0   17.03   1.20   25.00
pair_coeff  1028  2142   gauss/wall   -6.0   13.17   1.20   25.00
pair_coeff  1028  2144   gauss/wall   -6.0   17.47   1.20   25.00
pair_coeff  1028  2152   gauss/wall   -6.0   15.58   1.20   25.00
pair_coeff  1029  2137   gauss/wall   -6.0   16.56   1.20   25.00
pair_coeff  1029  2141   gauss/wall   -6.0   13.65   1.20   25.00
pair_coeff  1029  2144   gauss/wall   -6.0   14.59   1.20   25.00
pair_coeff  1029  2151   gauss/wall   -6.0   16.65   1.20   25.00
pair_coeff  1030  2073   gauss/wall   -6.0   14.84   1.20   25.00
pair_coeff  1030  2087   gauss/wall   -6.0   15.77   1.20   25.00
pair_coeff  1030  2089   gauss/wall   -6.0   16.84   1.20   25.00
pair_coeff  1030  2148   gauss/wall   -6.0   17.35   1.20   25.00
pair_coeff  1030  2151   gauss/wall   -6.0   14.42   1.20   25.00
pair_coeff  1230  2041   gauss/wall   -6.0   16.96   1.20   25.00
pair_coeff  1230  2042   gauss/wall   -6.0   16.67   1.20   25.00
pair_coeff  1231  2043   gauss/wall   -6.0   14.47   1.20   25.00
pair_coeff  1231  2044   gauss/wall   -6.0   16.96   1.20   25.00
pair_coeff  1232  2027   gauss/wall   -6.0   16.80   1.20   25.00
pair_coeff  1232  2032   gauss/wall   -6.0   16.48   1.20   25.00
pair_coeff  1232  2038   gauss/wall   -6.0   13.71   1.20   25.00
pair_coeff  1232  2039   gauss/wall   -6.0   12.68   1.20   25.00
pair_coeff  1232  2040   gauss/wall   -6.0   13.36   1.20   25.00
pair_coeff  1232  2044   gauss/wall   -6.0   14.60   1.20   25.00
pair_coeff  1232  2045   gauss/wall   -6.0   17.11   1.20   25.00
pair_coeff  1233  2038   gauss/wall   -6.0   15.37   1.20   25.00
pair_coeff  1233  2045   gauss/wall   -6.0   17.25   1.20   25.00
pair_coeff  1234  1734   gauss/wall   -6.0   16.67   1.20   25.00
pair_coeff  1234  2040   gauss/wall   -6.0   13.50   1.20   25.00
pair_coeff  1234  2044   gauss/wall   -6.0   13.42   1.20   25.00
pair_coeff  1235  1736   gauss/wall   -6.0   14.75   1.20   25.00
pair_coeff  1235  1737   gauss/wall   -6.0   14.65   1.20   25.00
pair_coeff  1235  2041   gauss/wall   -6.0   17.18   1.20   25.00
pair_coeff  1235  2042   gauss/wall   -6.0   16.46   1.20   25.00
pair_coeff  1261  2087   gauss/wall   -6.0   15.72   1.20   25.00
pair_coeff  1261  2088   gauss/wall   -6.0   14.83   1.20   25.00
pair_coeff  1263  2087   gauss/wall   -6.0   17.41   1.20   25.00
pair_coeff  1263  2088   gauss/wall   -6.0   15.44   1.20   25.00
pair_coeff  1264  2073   gauss/wall   -6.0   16.79   1.20   25.00
pair_coeff  1264  2084   gauss/wall   -6.0   16.09   1.20   25.00
pair_coeff  1264  2085   gauss/wall   -6.0   17.21   1.20   25.00
pair_coeff  1264  2086   gauss/wall   -6.0   16.90   1.20   25.00
pair_coeff  1264  2090   gauss/wall   -6.0   16.23   1.20   25.00
pair_coeff  1264  2147   gauss/wall   -6.0   15.92   1.20   25.00
pair_coeff  1264  2148   gauss/wall   -6.0   13.01   1.20   25.00
pair_coeff  1264  2151   gauss/wall   -6.0   13.73   1.20   25.00
pair_coeff  1264  2152   gauss/wall   -6.0   14.86   1.20   25.00
