pair_coeff     1   644   gauss/wall   -5.5   11.71   1.20   25.00
pair_coeff     1   652   gauss/wall   -5.5   12.58   1.20   25.00
pair_coeff     1   675   gauss/wall   -5.5   13.02   1.20   25.00
pair_coeff     1   676   gauss/wall   -5.5   11.22   1.20   25.00
pair_coeff     1   677   gauss/wall   -5.5   11.66   1.20   25.00
pair_coeff     1   679   gauss/wall   -5.5   13.25   1.20   25.00
pair_coeff     2   643   gauss/wall   -5.5   11.73   1.20   25.00
pair_coeff     2   644   gauss/wall   -5.5   10.27   1.20   25.00
pair_coeff     2   651   gauss/wall   -5.5   10.94   1.20   25.00
pair_coeff     2   652   gauss/wall   -5.5   11.58   1.20   25.00
pair_coeff     2   653   gauss/wall   -5.5   11.74   1.20   25.00
pair_coeff     2   676   gauss/wall   -5.5   10.23   1.20   25.00
pair_coeff     2   677   gauss/wall   -5.5   11.91   1.20   25.00
pair_coeff     2   679   gauss/wall   -5.5   12.93   1.20   25.00
pair_coeff     3   643   gauss/wall   -5.5   13.06   1.20   25.00
pair_coeff     3   644   gauss/wall   -5.5   13.04   1.20   25.00
pair_coeff     3   651   gauss/wall   -5.5   11.15   1.20   25.00
pair_coeff     3   652   gauss/wall   -5.5   11.42   1.20   25.00
pair_coeff     3   653   gauss/wall   -5.5   12.65   1.20   25.00
pair_coeff     3   676   gauss/wall   -5.5    9.67   1.20   25.00
pair_coeff     3   677   gauss/wall   -5.5   13.07   1.20   25.00
pair_coeff     3   679   gauss/wall   -5.5   13.16   1.20   25.00
pair_coeff     4   643   gauss/wall   -5.5   11.94   1.20   25.00
pair_coeff     4   644   gauss/wall   -5.5   11.34   1.20   25.00
pair_coeff     4   651   gauss/wall   -5.5   10.92   1.20   25.00
pair_coeff     4   653   gauss/wall   -5.5   10.45   1.20   25.00
pair_coeff     4   662   gauss/wall   -5.5   12.06   1.20   25.00
pair_coeff     4   676   gauss/wall   -5.5   11.44   1.20   25.00
pair_coeff     4   679   gauss/wall   -5.5   13.26   1.20   25.00
pair_coeff     5   651   gauss/wall   -5.5    9.98   1.20   25.00
pair_coeff     5   652   gauss/wall   -5.5    8.72   1.20   25.00
pair_coeff     5   653   gauss/wall   -5.5   11.22   1.20   25.00
pair_coeff     5   661   gauss/wall   -5.5   11.89   1.20   25.00
pair_coeff     5   662   gauss/wall   -5.5   11.20   1.20   25.00
pair_coeff     5   663   gauss/wall   -5.5   12.88   1.20   25.00
pair_coeff     5   676   gauss/wall   -5.5   13.11   1.20   25.00
pair_coeff     6   650   gauss/wall   -5.5   12.85   1.20   25.00
pair_coeff     6   651   gauss/wall   -5.5    9.32   1.20   25.00
pair_coeff     6   652   gauss/wall   -5.5    9.11   1.20   25.00
pair_coeff     6   653   gauss/wall   -5.5   12.09   1.20   25.00
pair_coeff     6   659   gauss/wall   -5.5   13.04   1.20   25.00
pair_coeff     6   661   gauss/wall   -5.5   11.44   1.20   25.00
pair_coeff     6   662   gauss/wall   -5.5    9.19   1.20   25.00
pair_coeff     6   663   gauss/wall   -5.5   11.83   1.20   25.00
pair_coeff     6   671   gauss/wall   -5.5   13.41   1.20   25.00
pair_coeff     7   651   gauss/wall   -5.5   12.60   1.20   25.00
pair_coeff     7   652   gauss/wall   -5.5   11.01   1.20   25.00
pair_coeff     7   653   gauss/wall   -5.5   10.75   1.20   25.00
pair_coeff     7   661   gauss/wall   -5.5   11.21   1.20   25.00
pair_coeff     7   663   gauss/wall   -5.5    8.96   1.20   25.00
pair_coeff     7   668   gauss/wall   -5.5   12.52   1.20   25.00
pair_coeff     7   671   gauss/wall   -5.5   11.11   1.20   25.00
pair_coeff     7   672   gauss/wall   -5.5   11.63   1.20   25.00
pair_coeff     8   661   gauss/wall   -5.5   12.29   1.20   25.00
pair_coeff     8   662   gauss/wall   -5.5    9.76   1.20   25.00
pair_coeff     8   663   gauss/wall   -5.5   11.85   1.20   25.00
pair_coeff     8   667   gauss/wall   -5.5   12.86   1.20   25.00
pair_coeff     8   668   gauss/wall   -5.5   11.25   1.20   25.00
pair_coeff     8   669   gauss/wall   -5.5   11.12   1.20   25.00
pair_coeff     8   670   gauss/wall   -5.5   11.00   1.20   25.00
pair_coeff     8   671   gauss/wall   -5.5   10.14   1.20   25.00
pair_coeff     8   673   gauss/wall   -5.5    9.47   1.20   25.00
pair_coeff     8   683   gauss/wall   -5.5   11.52   1.20   25.00
pair_coeff     8   684   gauss/wall   -5.5   12.53   1.20   25.00
pair_coeff     9   670   gauss/wall   -5.5   12.62   1.20   25.00
pair_coeff     9   671   gauss/wall   -5.5   12.50   1.20   25.00
pair_coeff     9   672   gauss/wall   -5.5   10.31   1.20   25.00
pair_coeff     9   673   gauss/wall   -5.5    9.64   1.20   25.00
pair_coeff     9   674   gauss/wall   -5.5   12.17   1.20   25.00
pair_coeff     9   683   gauss/wall   -5.5   12.75   1.20   25.00
pair_coeff     9   684   gauss/wall   -5.5   10.47   1.20   25.00
pair_coeff    10   685   gauss/wall   -5.5   11.47   1.20   25.00
pair_coeff    10   686   gauss/wall   -5.5   12.76   1.20   25.00
pair_coeff    19   834   gauss/wall   -5.5   11.81   1.20   25.00
pair_coeff    19   836   gauss/wall   -5.5   10.31   1.20   25.00
pair_coeff    21   804   gauss/wall   -5.5   10.32   1.20   25.00
pair_coeff    21   806   gauss/wall   -5.5   11.89   1.20   25.00
pair_coeff    21   832   gauss/wall   -5.5   11.59   1.20   25.00
pair_coeff    21   834   gauss/wall   -5.5   12.00   1.20   25.00
pair_coeff    22   806   gauss/wall   -5.5   10.73   1.20   25.00
pair_coeff    27   806   gauss/wall   -5.5   10.23   1.20   25.00
pair_coeff    27   807   gauss/wall   -5.5   13.06   1.20   25.00
pair_coeff    28   801   gauss/wall   -5.5   11.86   1.20   25.00
pair_coeff    28   806   gauss/wall   -5.5   10.60   1.20   25.00
pair_coeff    29   808   gauss/wall   -5.5   12.47   1.20   25.00
pair_coeff    39   810   gauss/wall   -5.5    9.79   1.20   25.00
pair_coeff    39   811   gauss/wall   -5.5   11.54   1.20   25.00
pair_coeff    41   808   gauss/wall   -5.5   11.49   1.20   25.00
pair_coeff    42   808   gauss/wall   -5.5   12.77   1.20   25.00
pair_coeff    42   809   gauss/wall   -5.5   11.13   1.20   25.00
pair_coeff    42   810   gauss/wall   -5.5   12.61   1.20   25.00
pair_coeff    87   834   gauss/wall   -5.5   10.67   1.20   25.00
pair_coeff    97   805   gauss/wall   -5.5   12.97   1.20   25.00
pair_coeff    98   804   gauss/wall   -5.5   12.03   1.20   25.00
pair_coeff    98   805   gauss/wall   -5.5   12.07   1.20   25.00
pair_coeff   100   570   gauss/wall   -5.5   13.41   1.20   25.00
pair_coeff   100   692   gauss/wall   -5.5   10.86   1.20   25.00
pair_coeff   100   696   gauss/wall   -5.5   11.71   1.20   25.00
pair_coeff   101   570   gauss/wall   -5.5   13.44   1.20   25.00
pair_coeff   101   692   gauss/wall   -5.5   11.79   1.20   25.00
pair_coeff   101   693   gauss/wall   -5.5   12.35   1.20   25.00
pair_coeff   101   695   gauss/wall   -5.5   11.82   1.20   25.00
pair_coeff   101   696   gauss/wall   -5.5   11.54   1.20   25.00
pair_coeff   102   692   gauss/wall   -5.5   13.24   1.20   25.00
pair_coeff   102   693   gauss/wall   -5.5   13.06   1.20   25.00
pair_coeff   102   695   gauss/wall   -5.5   11.64   1.20   25.00
pair_coeff   103   684   gauss/wall   -5.5   12.33   1.20   25.00
pair_coeff   103   685   gauss/wall   -5.5   13.86   1.20   25.00
pair_coeff   104   670   gauss/wall   -5.5   11.03   1.20   25.00
pair_coeff   105   804   gauss/wall   -5.5   11.21   1.20   25.00
pair_coeff   107   692   gauss/wall   -5.5   10.67   1.20   25.00
pair_coeff   108   691   gauss/wall   -5.5   12.37   1.20   25.00
pair_coeff   108   693   gauss/wall   -5.5   11.21   1.20   25.00
pair_coeff   108   695   gauss/wall   -5.5   13.26   1.20   25.00
pair_coeff   108   696   gauss/wall   -5.5   11.55   1.20   25.00
pair_coeff   109   576   gauss/wall   -5.5   12.70   1.20   25.00
pair_coeff   109   688   gauss/wall   -5.5   12.34   1.20   25.00
pair_coeff   109   691   gauss/wall   -5.5   11.11   1.20   25.00
pair_coeff   109   693   gauss/wall   -5.5    8.97   1.20   25.00
pair_coeff   109   695   gauss/wall   -5.5   12.10   1.20   25.00
pair_coeff   109   696   gauss/wall   -5.5   11.85   1.20   25.00
pair_coeff   110   589   gauss/wall   -5.5   11.97   1.20   25.00
pair_coeff   110   682   gauss/wall   -5.5   12.72   1.20   25.00
pair_coeff   110   683   gauss/wall   -5.5   11.33   1.20   25.00
pair_coeff   110   684   gauss/wall   -5.5   11.14   1.20   25.00
pair_coeff   110   687   gauss/wall   -5.5   12.57   1.20   25.00
pair_coeff   110   688   gauss/wall   -5.5   13.26   1.20   25.00
pair_coeff   110   691   gauss/wall   -5.5   12.27   1.20   25.00
pair_coeff   110   692   gauss/wall   -5.5   12.89   1.20   25.00
pair_coeff   110   693   gauss/wall   -5.5   11.23   1.20   25.00
pair_coeff   111   577   gauss/wall   -5.5   13.04   1.20   25.00
pair_coeff   111   578   gauss/wall   -5.5   13.33   1.20   25.00
pair_coeff   111   580   gauss/wall   -5.5   11.90   1.20   25.00
pair_coeff   111   581   gauss/wall   -5.5   11.88   1.20   25.00
pair_coeff   111   588   gauss/wall   -5.5   12.44   1.20   25.00
pair_coeff   111   589   gauss/wall   -5.5    9.70   1.20   25.00
pair_coeff   111   590   gauss/wall   -5.5   10.23   1.20   25.00
pair_coeff   111   591   gauss/wall   -5.5   12.41   1.20   25.00
pair_coeff   111   682   gauss/wall   -5.5   10.70   1.20   25.00
pair_coeff   111   683   gauss/wall   -5.5   11.50   1.20   25.00
pair_coeff   111   691   gauss/wall   -5.5   11.70   1.20   25.00
pair_coeff   111   692   gauss/wall   -5.5   10.72   1.20   25.00
pair_coeff   112   576   gauss/wall   -5.5   12.71   1.20   25.00
pair_coeff   112   577   gauss/wall   -5.5   10.98   1.20   25.00
pair_coeff   112   578   gauss/wall   -5.5   10.11   1.20   25.00
pair_coeff   112   579   gauss/wall   -5.5   10.25   1.20   25.00
pair_coeff   112   580   gauss/wall   -5.5   10.57   1.20   25.00
pair_coeff   112   582   gauss/wall   -5.5   12.18   1.20   25.00
pair_coeff   112   588   gauss/wall   -5.5   11.54   1.20   25.00
pair_coeff   112   589   gauss/wall   -5.5    9.23   1.20   25.00
pair_coeff   112   591   gauss/wall   -5.5   10.22   1.20   25.00
pair_coeff   112   592   gauss/wall   -5.5   13.88   1.20   25.00
pair_coeff   112   690   gauss/wall   -5.5   11.49   1.20   25.00
pair_coeff   112   691   gauss/wall   -5.5    8.58   1.20   25.00
pair_coeff   113   576   gauss/wall   -5.5   12.18   1.20   25.00
pair_coeff   113   578   gauss/wall   -5.5   11.42   1.20   25.00
pair_coeff   113   579   gauss/wall   -5.5   10.89   1.20   25.00
pair_coeff   113   580   gauss/wall   -5.5   11.06   1.20   25.00
pair_coeff   113   582   gauss/wall   -5.5   11.05   1.20   25.00
pair_coeff   113   587   gauss/wall   -5.5   12.77   1.20   25.00
pair_coeff   113   588   gauss/wall   -5.5   10.81   1.20   25.00
pair_coeff   113   589   gauss/wall   -5.5    9.45   1.20   25.00
pair_coeff   113   592   gauss/wall   -5.5   11.28   1.20   25.00
pair_coeff   113   690   gauss/wall   -5.5   10.25   1.20   25.00
pair_coeff   113   691   gauss/wall   -5.5   11.11   1.20   25.00
pair_coeff   114   579   gauss/wall   -5.5   13.33   1.20   25.00
pair_coeff   114   581   gauss/wall   -5.5   10.87   1.20   25.00
pair_coeff   114   582   gauss/wall   -5.5   11.59   1.20   25.00
pair_coeff   114   587   gauss/wall   -5.5   11.52   1.20   25.00
pair_coeff   114   588   gauss/wall   -5.5   11.29   1.20   25.00
pair_coeff   114   589   gauss/wall   -5.5   12.03   1.20   25.00
pair_coeff   114   590   gauss/wall   -5.5   11.88   1.20   25.00
pair_coeff   114   592   gauss/wall   -5.5   11.71   1.20   25.00
pair_coeff   114   602   gauss/wall   -5.5   12.22   1.20   25.00
pair_coeff   114   603   gauss/wall   -5.5   11.81   1.20   25.00
pair_coeff   114   604   gauss/wall   -5.5   12.35   1.20   25.00
pair_coeff   114   616   gauss/wall   -5.5   11.78   1.20   25.00
pair_coeff   114   689   gauss/wall   -5.5   12.22   1.20   25.00
pair_coeff   114   690   gauss/wall   -5.5   11.10   1.20   25.00
pair_coeff   115   587   gauss/wall   -5.5   10.85   1.20   25.00
pair_coeff   115   588   gauss/wall   -5.5   11.76   1.20   25.00
pair_coeff   115   589   gauss/wall   -5.5   11.71   1.20   25.00
pair_coeff   115   590   gauss/wall   -5.5   12.19   1.20   25.00
pair_coeff   115   591   gauss/wall   -5.5   10.63   1.20   25.00
pair_coeff   115   592   gauss/wall   -5.5   10.73   1.20   25.00
pair_coeff   115   601   gauss/wall   -5.5   11.86   1.20   25.00
pair_coeff   115   602   gauss/wall   -5.5   10.68   1.20   25.00
pair_coeff   115   603   gauss/wall   -5.5    9.71   1.20   25.00
pair_coeff   115   604   gauss/wall   -5.5   11.58   1.20   25.00
pair_coeff   115   615   gauss/wall   -5.5   11.92   1.20   25.00
pair_coeff   115   688   gauss/wall   -5.5   12.34   1.20   25.00
pair_coeff   115   689   gauss/wall   -5.5    8.77   1.20   25.00
pair_coeff   115   690   gauss/wall   -5.5   12.46   1.20   25.00
pair_coeff   116   586   gauss/wall   -5.5   10.92   1.20   25.00
pair_coeff   116   587   gauss/wall   -5.5   11.02   1.20   25.00
pair_coeff   116   588   gauss/wall   -5.5   11.99   1.20   25.00
pair_coeff   116   591   gauss/wall   -5.5   13.40   1.20   25.00
pair_coeff   116   600   gauss/wall   -5.5   12.36   1.20   25.00
pair_coeff   116   602   gauss/wall   -5.5   10.13   1.20   25.00
pair_coeff   116   603   gauss/wall   -5.5   10.06   1.20   25.00
pair_coeff   116   687   gauss/wall   -5.5   13.11   1.20   25.00
pair_coeff   116   688   gauss/wall   -5.5   11.73   1.20   25.00
pair_coeff   117   586   gauss/wall   -5.5   10.01   1.20   25.00
pair_coeff   117   587   gauss/wall   -5.5    9.03   1.20   25.00
pair_coeff   117   588   gauss/wall   -5.5   11.93   1.20   25.00
pair_coeff   117   602   gauss/wall   -5.5   10.79   1.20   25.00
pair_coeff   117   603   gauss/wall   -5.5   11.11   1.20   25.00
pair_coeff   117   687   gauss/wall   -5.5   11.70   1.20   25.00
pair_coeff   117   689   gauss/wall   -5.5   10.67   1.20   25.00
pair_coeff   117   693   gauss/wall   -5.5   11.30   1.20   25.00
pair_coeff   117   694   gauss/wall   -5.5   10.96   1.20   25.00
pair_coeff   118   575   gauss/wall   -5.5   10.62   1.20   25.00
pair_coeff   118   586   gauss/wall   -5.5   12.68   1.20   25.00
pair_coeff   118   587   gauss/wall   -5.5   11.52   1.20   25.00
pair_coeff   118   687   gauss/wall   -5.5   10.90   1.20   25.00
pair_coeff   118   688   gauss/wall   -5.5   10.05   1.20   25.00
pair_coeff   118   689   gauss/wall   -5.5   11.29   1.20   25.00
pair_coeff   118   693   gauss/wall   -5.5    9.72   1.20   25.00
pair_coeff   118   694   gauss/wall   -5.5   12.10   1.20   25.00
pair_coeff   118   695   gauss/wall   -5.5   11.61   1.20   25.00
pair_coeff   118   696   gauss/wall   -5.5   11.12   1.20   25.00
pair_coeff   119   570   gauss/wall   -5.5    9.53   1.20   25.00
pair_coeff   119   571   gauss/wall   -5.5   12.70   1.20   25.00
pair_coeff   119   575   gauss/wall   -5.5   11.44   1.20   25.00
pair_coeff   119   576   gauss/wall   -5.5   12.93   1.20   25.00
pair_coeff   119   687   gauss/wall   -5.5   10.76   1.20   25.00
pair_coeff   119   688   gauss/wall   -5.5   11.45   1.20   25.00
pair_coeff   119   689   gauss/wall   -5.5   12.18   1.20   25.00
pair_coeff   119   692   gauss/wall   -5.5   11.75   1.20   25.00
pair_coeff   119   694   gauss/wall   -5.5    9.32   1.20   25.00
pair_coeff   119   695   gauss/wall   -5.5    9.27   1.20   25.00
pair_coeff   119   696   gauss/wall   -5.5   12.23   1.20   25.00
pair_coeff   120   569   gauss/wall   -5.5   13.41   1.20   25.00
pair_coeff   120   570   gauss/wall   -5.5   10.62   1.20   25.00
pair_coeff   120   571   gauss/wall   -5.5   11.51   1.20   25.00
pair_coeff   120   574   gauss/wall   -5.5   12.41   1.20   25.00
pair_coeff   120   575   gauss/wall   -5.5   10.99   1.20   25.00
pair_coeff   120   576   gauss/wall   -5.5   10.55   1.20   25.00
pair_coeff   120   587   gauss/wall   -5.5   12.99   1.20   25.00
pair_coeff   120   588   gauss/wall   -5.5   10.94   1.20   25.00
pair_coeff   120   688   gauss/wall   -5.5   10.27   1.20   25.00
pair_coeff   120   689   gauss/wall   -5.5   11.10   1.20   25.00
pair_coeff   120   690   gauss/wall   -5.5   11.86   1.20   25.00
pair_coeff   120   691   gauss/wall   -5.5   12.14   1.20   25.00
pair_coeff   120   692   gauss/wall   -5.5   12.61   1.20   25.00
pair_coeff   120   693   gauss/wall   -5.5   10.06   1.20   25.00
pair_coeff   120   694   gauss/wall   -5.5    9.88   1.20   25.00
pair_coeff   120   695   gauss/wall   -5.5   10.81   1.20   25.00
pair_coeff   120   696   gauss/wall   -5.5    9.79   1.20   25.00
pair_coeff   120   697   gauss/wall   -5.5   10.40   1.20   25.00
pair_coeff   121   574   gauss/wall   -5.5   10.98   1.20   25.00
pair_coeff   121   575   gauss/wall   -5.5   10.37   1.20   25.00
pair_coeff   121   577   gauss/wall   -5.5   12.59   1.20   25.00
pair_coeff   121   585   gauss/wall   -5.5   11.37   1.20   25.00
pair_coeff   121   586   gauss/wall   -5.5   11.37   1.20   25.00
pair_coeff   121   587   gauss/wall   -5.5   11.03   1.20   25.00
pair_coeff   121   588   gauss/wall   -5.5   10.85   1.20   25.00
pair_coeff   121   589   gauss/wall   -5.5   12.32   1.20   25.00
pair_coeff   121   590   gauss/wall   -5.5   12.60   1.20   25.00
pair_coeff   121   591   gauss/wall   -5.5   12.43   1.20   25.00
pair_coeff   121   592   gauss/wall   -5.5   11.51   1.20   25.00
pair_coeff   121   688   gauss/wall   -5.5   11.44   1.20   25.00
pair_coeff   121   689   gauss/wall   -5.5   12.29   1.20   25.00
pair_coeff   121   690   gauss/wall   -5.5    8.55   1.20   25.00
pair_coeff   121   691   gauss/wall   -5.5   11.27   1.20   25.00
pair_coeff   121   693   gauss/wall   -5.5   11.56   1.20   25.00
pair_coeff   121   694   gauss/wall   -5.5   13.01   1.20   25.00
pair_coeff   121   696   gauss/wall   -5.5   12.21   1.20   25.00
pair_coeff   121   697   gauss/wall   -5.5   13.27   1.20   25.00
pair_coeff   121   698   gauss/wall   -5.5   13.34   1.20   25.00
pair_coeff   122   571   gauss/wall   -5.5   11.50   1.20   25.00
pair_coeff   122   572   gauss/wall   -5.5   10.71   1.20   25.00
pair_coeff   122   576   gauss/wall   -5.5    8.33   1.20   25.00
pair_coeff   122   578   gauss/wall   -5.5   12.06   1.20   25.00
pair_coeff   122   581   gauss/wall   -5.5   12.03   1.20   25.00
pair_coeff   122   582   gauss/wall   -5.5   12.42   1.20   25.00
pair_coeff   122   583   gauss/wall   -5.5   11.64   1.20   25.00
pair_coeff   122   588   gauss/wall   -5.5   10.36   1.20   25.00
pair_coeff   122   589   gauss/wall   -5.5   11.16   1.20   25.00
pair_coeff   122   591   gauss/wall   -5.5   10.54   1.20   25.00
pair_coeff   122   592   gauss/wall   -5.5   10.84   1.20   25.00
pair_coeff   122   689   gauss/wall   -5.5   11.48   1.20   25.00
pair_coeff   122   691   gauss/wall   -5.5    9.12   1.20   25.00
pair_coeff   123   559   gauss/wall   -5.5   11.39   1.20   25.00
pair_coeff   123   572   gauss/wall   -5.5   10.80   1.20   25.00
pair_coeff   123   576   gauss/wall   -5.5   11.56   1.20   25.00
pair_coeff   123   578   gauss/wall   -5.5    8.72   1.20   25.00
pair_coeff   123   579   gauss/wall   -5.5   11.05   1.20   25.00
pair_coeff   123   580   gauss/wall   -5.5   12.87   1.20   25.00
pair_coeff   123   581   gauss/wall   -5.5   10.62   1.20   25.00
pair_coeff   123   582   gauss/wall   -5.5   11.79   1.20   25.00
pair_coeff   123   583   gauss/wall   -5.5   10.80   1.20   25.00
pair_coeff   123   588   gauss/wall   -5.5   12.32   1.20   25.00
pair_coeff   123   589   gauss/wall   -5.5   11.84   1.20   25.00
pair_coeff   123   590   gauss/wall   -5.5   11.28   1.20   25.00
pair_coeff   123   592   gauss/wall   -5.5   11.65   1.20   25.00
pair_coeff   123   690   gauss/wall   -5.5   10.68   1.20   25.00
pair_coeff   123   691   gauss/wall   -5.5   10.92   1.20   25.00
pair_coeff   124   576   gauss/wall   -5.5   11.15   1.20   25.00
pair_coeff   124   577   gauss/wall   -5.5   10.24   1.20   25.00
pair_coeff   124   578   gauss/wall   -5.5   10.68   1.20   25.00
pair_coeff   124   579   gauss/wall   -5.5   12.45   1.20   25.00
pair_coeff   124   581   gauss/wall   -5.5   11.41   1.20   25.00
pair_coeff   124   582   gauss/wall   -5.5   11.14   1.20   25.00
pair_coeff   124   583   gauss/wall   -5.5   10.81   1.20   25.00
pair_coeff   124   587   gauss/wall   -5.5   12.29   1.20   25.00
pair_coeff   124   588   gauss/wall   -5.5   10.68   1.20   25.00
pair_coeff   124   589   gauss/wall   -5.5   11.96   1.20   25.00
pair_coeff   124   590   gauss/wall   -5.5    9.93   1.20   25.00
pair_coeff   124   591   gauss/wall   -5.5   11.73   1.20   25.00
pair_coeff   124   592   gauss/wall   -5.5   10.82   1.20   25.00
pair_coeff   124   593   gauss/wall   -5.5   13.00   1.20   25.00
pair_coeff   124   689   gauss/wall   -5.5   12.80   1.20   25.00
pair_coeff   124   690   gauss/wall   -5.5    9.70   1.20   25.00
pair_coeff   124   691   gauss/wall   -5.5   11.79   1.20   25.00
pair_coeff   125   575   gauss/wall   -5.5   12.31   1.20   25.00
pair_coeff   125   577   gauss/wall   -5.5   11.49   1.20   25.00
pair_coeff   125   581   gauss/wall   -5.5   13.23   1.20   25.00
pair_coeff   125   585   gauss/wall   -5.5   12.23   1.20   25.00
pair_coeff   125   586   gauss/wall   -5.5   11.09   1.20   25.00
pair_coeff   125   589   gauss/wall   -5.5    9.71   1.20   25.00
pair_coeff   125   590   gauss/wall   -5.5    9.95   1.20   25.00
pair_coeff   125   591   gauss/wall   -5.5    9.33   1.20   25.00
pair_coeff   125   592   gauss/wall   -5.5    9.51   1.20   25.00
pair_coeff   125   602   gauss/wall   -5.5   12.38   1.20   25.00
pair_coeff   125   603   gauss/wall   -5.5   10.90   1.20   25.00
pair_coeff   125   604   gauss/wall   -5.5   12.43   1.20   25.00
pair_coeff   125   688   gauss/wall   -5.5   12.72   1.20   25.00
pair_coeff   125   689   gauss/wall   -5.5    9.36   1.20   25.00
pair_coeff   125   690   gauss/wall   -5.5   12.70   1.20   25.00
pair_coeff   125   691   gauss/wall   -5.5   11.38   1.20   25.00
pair_coeff   126   575   gauss/wall   -5.5   12.27   1.20   25.00
pair_coeff   126   576   gauss/wall   -5.5   11.12   1.20   25.00
pair_coeff   126   585   gauss/wall   -5.5   11.16   1.20   25.00
pair_coeff   126   587   gauss/wall   -5.5   10.09   1.20   25.00
pair_coeff   126   588   gauss/wall   -5.5    9.81   1.20   25.00
pair_coeff   126   589   gauss/wall   -5.5   13.29   1.20   25.00
pair_coeff   126   591   gauss/wall   -5.5   12.69   1.20   25.00
pair_coeff   126   592   gauss/wall   -5.5   12.43   1.20   25.00
pair_coeff   126   602   gauss/wall   -5.5   12.02   1.20   25.00
pair_coeff   126   603   gauss/wall   -5.5   10.03   1.20   25.00
pair_coeff   126   604   gauss/wall   -5.5   12.13   1.20   25.00
pair_coeff   126   688   gauss/wall   -5.5   10.31   1.20   25.00
pair_coeff   126   690   gauss/wall   -5.5   10.93   1.20   25.00
pair_coeff   126   693   gauss/wall   -5.5   12.22   1.20   25.00
pair_coeff   126   694   gauss/wall   -5.5   11.53   1.20   25.00
pair_coeff   127   571   gauss/wall   -5.5   11.81   1.20   25.00
pair_coeff   127   574   gauss/wall   -5.5   11.32   1.20   25.00
pair_coeff   127   575   gauss/wall   -5.5    9.56   1.20   25.00
pair_coeff   127   576   gauss/wall   -5.5   10.27   1.20   25.00
pair_coeff   127   585   gauss/wall   -5.5   11.62   1.20   25.00
pair_coeff   127   586   gauss/wall   -5.5    9.64   1.20   25.00
pair_coeff   127   587   gauss/wall   -5.5   12.57   1.20   25.00
pair_coeff   127   588   gauss/wall   -5.5   10.09   1.20   25.00
pair_coeff   127   589   gauss/wall   -5.5   12.22   1.20   25.00
pair_coeff   127   591   gauss/wall   -5.5   11.87   1.20   25.00
pair_coeff   127   592   gauss/wall   -5.5   12.14   1.20   25.00
pair_coeff   127   688   gauss/wall   -5.5   11.12   1.20   25.00
pair_coeff   127   690   gauss/wall   -5.5    9.61   1.20   25.00
pair_coeff   127   691   gauss/wall   -5.5   12.21   1.20   25.00
pair_coeff   127   693   gauss/wall   -5.5   10.67   1.20   25.00
pair_coeff   127   694   gauss/wall   -5.5   12.28   1.20   25.00
pair_coeff   127   696   gauss/wall   -5.5   12.04   1.20   25.00
pair_coeff   128   575   gauss/wall   -5.5   10.70   1.20   25.00
pair_coeff   128   576   gauss/wall   -5.5   10.88   1.20   25.00
pair_coeff   128   586   gauss/wall   -5.5   10.69   1.20   25.00
pair_coeff   128   587   gauss/wall   -5.5   10.99   1.20   25.00
pair_coeff   128   588   gauss/wall   -5.5   10.66   1.20   25.00
pair_coeff   128   589   gauss/wall   -5.5   12.56   1.20   25.00
pair_coeff   128   591   gauss/wall   -5.5   12.44   1.20   25.00
pair_coeff   128   687   gauss/wall   -5.5   11.50   1.20   25.00
pair_coeff   128   690   gauss/wall   -5.5   10.88   1.20   25.00
pair_coeff   128   691   gauss/wall   -5.5   12.83   1.20   25.00
pair_coeff   128   692   gauss/wall   -5.5   13.37   1.20   25.00
pair_coeff   128   693   gauss/wall   -5.5   10.14   1.20   25.00
pair_coeff   128   694   gauss/wall   -5.5   12.24   1.20   25.00
pair_coeff   128   695   gauss/wall   -5.5   11.42   1.20   25.00
pair_coeff   128   696   gauss/wall   -5.5   11.38   1.20   25.00
pair_coeff   129   575   gauss/wall   -5.5   11.77   1.20   25.00
pair_coeff   129   576   gauss/wall   -5.5   10.64   1.20   25.00
pair_coeff   129   586   gauss/wall   -5.5   12.70   1.20   25.00
pair_coeff   129   587   gauss/wall   -5.5   11.78   1.20   25.00
pair_coeff   129   588   gauss/wall   -5.5   11.03   1.20   25.00
pair_coeff   129   589   gauss/wall   -5.5   11.48   1.20   25.00
pair_coeff   129   591   gauss/wall   -5.5   12.14   1.20   25.00
pair_coeff   129   687   gauss/wall   -5.5   11.89   1.20   25.00
pair_coeff   129   688   gauss/wall   -5.5   10.07   1.20   25.00
pair_coeff   129   689   gauss/wall   -5.5    9.48   1.20   25.00
pair_coeff   129   690   gauss/wall   -5.5   11.18   1.20   25.00
pair_coeff   129   691   gauss/wall   -5.5   11.18   1.20   25.00
pair_coeff   129   692   gauss/wall   -5.5   11.57   1.20   25.00
pair_coeff   129   693   gauss/wall   -5.5    8.93   1.20   25.00
pair_coeff   129   694   gauss/wall   -5.5   11.49   1.20   25.00
pair_coeff   129   695   gauss/wall   -5.5   10.52   1.20   25.00
pair_coeff   129   696   gauss/wall   -5.5    9.30   1.20   25.00
pair_coeff   130   575   gauss/wall   -5.5   11.98   1.20   25.00
pair_coeff   130   576   gauss/wall   -5.5   13.15   1.20   25.00
pair_coeff   130   587   gauss/wall   -5.5   11.65   1.20   25.00
pair_coeff   130   588   gauss/wall   -5.5   12.40   1.20   25.00
pair_coeff   130   686   gauss/wall   -5.5   12.28   1.20   25.00
pair_coeff   130   687   gauss/wall   -5.5   12.07   1.20   25.00
pair_coeff   130   689   gauss/wall   -5.5   11.52   1.20   25.00
pair_coeff   130   691   gauss/wall   -5.5   13.19   1.20   25.00
pair_coeff   130   692   gauss/wall   -5.5   11.41   1.20   25.00
pair_coeff   130   693   gauss/wall   -5.5   10.33   1.20   25.00
pair_coeff   130   694   gauss/wall   -5.5   10.88   1.20   25.00
pair_coeff   130   695   gauss/wall   -5.5    8.83   1.20   25.00
pair_coeff   130   696   gauss/wall   -5.5   10.80   1.20   25.00
pair_coeff   131   587   gauss/wall   -5.5   12.45   1.20   25.00
pair_coeff   131   588   gauss/wall   -5.5   12.56   1.20   25.00
pair_coeff   131   589   gauss/wall   -5.5   12.51   1.20   25.00
pair_coeff   131   686   gauss/wall   -5.5   12.34   1.20   25.00
pair_coeff   131   687   gauss/wall   -5.5   11.42   1.20   25.00
pair_coeff   131   688   gauss/wall   -5.5   10.08   1.20   25.00
pair_coeff   131   689   gauss/wall   -5.5   13.00   1.20   25.00
pair_coeff   131   691   gauss/wall   -5.5   12.57   1.20   25.00
pair_coeff   131   692   gauss/wall   -5.5   10.42   1.20   25.00
pair_coeff   131   693   gauss/wall   -5.5   11.07   1.20   25.00
pair_coeff   131   694   gauss/wall   -5.5   13.11   1.20   25.00
pair_coeff   131   695   gauss/wall   -5.5   10.50   1.20   25.00
pair_coeff   131   696   gauss/wall   -5.5   11.16   1.20   25.00
pair_coeff   132   587   gauss/wall   -5.5   12.71   1.20   25.00
pair_coeff   132   686   gauss/wall   -5.5   11.32   1.20   25.00
pair_coeff   132   688   gauss/wall   -5.5    9.23   1.20   25.00
pair_coeff   132   689   gauss/wall   -5.5   12.85   1.20   25.00
pair_coeff   132   692   gauss/wall   -5.5   11.83   1.20   25.00
pair_coeff   132   693   gauss/wall   -5.5   11.12   1.20   25.00
pair_coeff   132   694   gauss/wall   -5.5   12.38   1.20   25.00
pair_coeff   132   695   gauss/wall   -5.5   11.10   1.20   25.00
pair_coeff   133   587   gauss/wall   -5.5   12.79   1.20   25.00
pair_coeff   133   686   gauss/wall   -5.5   11.79   1.20   25.00
pair_coeff   133   688   gauss/wall   -5.5   10.65   1.20   25.00
pair_coeff   133   693   gauss/wall   -5.5   11.57   1.20   25.00
pair_coeff   134   587   gauss/wall   -5.5   10.73   1.20   25.00
pair_coeff   134   589   gauss/wall   -5.5   13.66   1.20   25.00
pair_coeff   134   601   gauss/wall   -5.5   12.77   1.20   25.00
pair_coeff   134   675   gauss/wall   -5.5   12.06   1.20   25.00
pair_coeff   134   686   gauss/wall   -5.5   10.63   1.20   25.00
pair_coeff   134   687   gauss/wall   -5.5    8.74   1.20   25.00
pair_coeff   134   688   gauss/wall   -5.5   12.92   1.20   25.00
pair_coeff   134   689   gauss/wall   -5.5   12.07   1.20   25.00
pair_coeff   134   693   gauss/wall   -5.5   13.37   1.20   25.00
pair_coeff   135   587   gauss/wall   -5.5   10.81   1.20   25.00
pair_coeff   135   588   gauss/wall   -5.5   11.29   1.20   25.00
pair_coeff   135   589   gauss/wall   -5.5   10.69   1.20   25.00
pair_coeff   135   590   gauss/wall   -5.5   13.40   1.20   25.00
pair_coeff   135   591   gauss/wall   -5.5   12.19   1.20   25.00
pair_coeff   135   602   gauss/wall   -5.5   13.20   1.20   25.00
pair_coeff   135   675   gauss/wall   -5.5   11.79   1.20   25.00
pair_coeff   135   684   gauss/wall   -5.5   13.32   1.20   25.00
pair_coeff   135   686   gauss/wall   -5.5   11.74   1.20   25.00
pair_coeff   135   687   gauss/wall   -5.5    9.81   1.20   25.00
pair_coeff   135   688   gauss/wall   -5.5   12.43   1.20   25.00
pair_coeff   135   689   gauss/wall   -5.5   10.63   1.20   25.00